i4 pb, 2(c3 h7 n2)                      
   1.00000000000000     
     9.0358852512152605    0.0000000000000000    0.0000000000000000
     0.0000000000000000   20.0450000210945056    0.0000000000000000
     0.0000000000000000    0.0000000000000000   10.3577029439828578
   Pb   I    N    H    C 
     4    16    16    56    24
Direct
  0.6758281902511493  0.2500000000000000  0.9972123389981983
  0.3241718377488530  0.7500000000000000  0.0027876420018039
  0.8241718097488507  0.7500000000000000  0.4972123389981977
  0.1758281622511468  0.2500000000000000  0.5027876130018049
  0.9090244980931836  0.2500000000000000  0.2165323965913813
  0.0909755299068189  0.7500000000000000  0.7834676034086185
  0.5909755019068164  0.7500000000000000  0.7165323965913815
  0.4090244980931834  0.2500000000000000  0.2834676034086188
  0.9328482105495168  0.2500000000000000  0.7993135733544170
  0.0671518104504815  0.7500000000000000  0.2006864266455833
  0.5671518444504771  0.7500000000000000  0.2993135733544168
  0.4328481825495213  0.2500000000000000  0.7006864266455830
  0.6332128878136434  0.0893012701527301  0.0223784219515923
  0.3667871121863568  0.9106987128472579  0.9776216210484076
  0.8667871121863566  0.9106987128472579  0.5223784279515858
  0.1332128878136360  0.0893012701527301  0.4776215720484144
  0.3667871121863568  0.5893012871527421  0.9776216210484076
  0.6332128878136434  0.4106987128472650  0.0223784219515923
  0.1332128878136360  0.4106987128472650  0.4776215720484144
  0.8667871121863566  0.5893012871527421  0.5223784279515858
  0.9887024871119383  0.0096184394664078  0.8375540631511560
  0.0112975508880649  0.9903815565335989  0.1624459728488474
  0.5112975128880617  0.9903815565335989  0.3375540141511552
  0.4887024871119381  0.0096184394664078  0.6624459858488445
  0.0112975508880649  0.5096184434664011  0.1624459728488474
  0.9887024871119383  0.4903815565335988  0.8375540631511560
  0.4887024871119381  0.4903815565335988  0.6624459858488445
  0.5112975128880617  0.5096184434664011  0.3375540141511552
  0.2458538893778111  0.0881069751970329  0.1211584905656475
  0.7541461376221873  0.9118930248029673  0.8788415334343544
  0.2541461106221892  0.9118930248029673  0.6211584665656456
  0.7458538623778127  0.0881069751970329  0.3788415094343525
  0.7541461376221873  0.5881070221970330  0.8788415334343544
  0.2458538893778111  0.4118930248029672  0.1211584905656475
  0.7458538623778127  0.4118930248029672  0.3788415094343525
  0.2541461106221892  0.5881070221970330  0.6211584665656456
  0.1774105460429453  0.0464795368314227  0.1336945766333317
  0.8225894539570546  0.9535204751685782  0.8663053623666667
  0.3225894819570573  0.9535204751685782  0.6336945886333328
  0.6774105460429454  0.0464795368314227  0.3663054353666694
  0.8225894539570546  0.5464795248314218  0.8663053623666667
  0.1774105460429453  0.4535204751685781  0.1336945766333317
  0.6774105460429454  0.4535204751685781  0.3663054353666694
  0.3225894819570573  0.5464795248314218  0.6336945886333328
  0.2415704265712934  0.1149565125455911  0.2068542376279241
  0.7584295454287038  0.8850435344544092  0.7931457623720757
  0.2584295734287069  0.8850435344544092  0.7068542376279243
  0.7415704545712962  0.1149565125455911  0.2931457623720760
  0.7584295454287038  0.6149565125455911  0.7931457623720757
  0.2415704265712934  0.3850435114544108  0.2068542376279240
  0.7415704545712962  0.3850435114544108  0.2931457623720760
  0.2584295734287069  0.6149565125455911  0.7068542376279243
  0.3557177670072033  0.0736497762948877  0.1069814423532263
  0.6442822329927963  0.9263502587051118  0.8930185816467756
  0.1442822469927978  0.9263502587051118  0.6069814663532213
  0.8557177670072037  0.0736497762948877  0.3930185576467738
  0.6442822329927963  0.5736497882948886  0.8930185816467756
  0.3557177670072033  0.4263502117051113  0.1069814423532263
  0.8557177670072037  0.4263502117051113  0.3930185576467738
  0.1442822469927978  0.5736497882948886  0.6069814663532213
  0.1992963044442784  0.1335285459207258  0.8020312559139638
  0.8007036535557183  0.8664714540792745  0.1979687320860357
  0.3007036815557207  0.8664714540792745  0.3020312799139582
  0.6992963464442817  0.1335285459207258  0.6979687440860362
  0.8007036535557183  0.6335285459207255  0.1979687320860357
  0.1992963044442784  0.3664714310792687  0.8020312559139638
  0.6992963464442817  0.3664714310792687  0.6979687440860362
  0.3007036815557207  0.6335285459207255  0.3020312799139582
  0.3135698823681710  0.0703511082342945  0.8675025754637651
  0.6864301176318288  0.9296488917656985  0.1324973515362397
  0.1864301176318292  0.9296488917656985  0.3675026484637605
  0.8135698823681712  0.0703511082342945  0.6324973765362381
  0.6864301176318288  0.5703511082343015  0.1324973515362397
  0.3135698823681710  0.4296488917657056  0.8675025754637651
  0.8135698823681712  0.4296488917657056  0.6324973765362381
  0.1864301176318292  0.5703511082343015  0.3675026484637605
  0.2651567268641423  0.1754282577095574  0.0084461919273322
  0.7348432461358586  0.8245717302904487  0.9915538100726684
  0.2348432731358576  0.8245717302904487  0.5084461899273316
  0.7651567538641414  0.1754282577095574  0.4915538100726680
  0.7348432461358586  0.6754282697095513  0.9915538100726684
  0.2651567268641423  0.3245717302904488  0.0084461919273322
  0.7651567538641414  0.3245717302904488  0.4915538100726680
  0.2348432731358576  0.6754282697095513  0.5084461899273316
  0.0802433959466900  0.1468182345994383  0.0305887051423645
  0.9197565910533123  0.8531817894005638  0.9694112998576326
  0.4197565910533055  0.8531817894005638  0.5305887001423674
  0.5802434089466877  0.1468182345994383  0.4694112998576395
  0.9197565910533123  0.6468182105994362  0.9694112998576326
  0.0802433959466900  0.3531817654005617  0.0305887051423645
  0.5802434089466877  0.3531817654005617  0.4694112998576395
  0.4197565910533054  0.6468182105994362  0.5305887001423674
  0.2060296652725839  0.0953871098473231  0.8780744401488566
  0.7939703347274164  0.9046128961526776  0.1219255848511420
  0.2939703067274136  0.9046128961526776  0.3780744151488581
  0.7060296652725836  0.0953871098473231  0.6219255598511434
  0.7939703347274164  0.5953871038473224  0.1219255848511420
  0.2060296652725839  0.4046128961526771  0.8780744401488566
  0.7060296652725836  0.4046128961526771  0.6219255598511434
  0.2939703067274136  0.5953871038473224  0.3780744151488581
  0.1938660208491568  0.1313588772095778  0.0096419899472475
  0.8061339931508441  0.8686410997904237  0.9903580120527524
  0.3061339651508418  0.8686410997904237  0.5096420369472481
  0.6938660068491559  0.1313588772095778  0.4903580120527528
  0.8061339931508441  0.6313589002095763  0.9903580120527524
  0.1938660208491568  0.3686411227904222  0.0096419899472475
  0.6938660068491559  0.3686411227904222  0.4903580120527528
  0.3061339651508418  0.6313589002095763  0.5096420369472481
  0.0871427278747326  0.0472242657251001  0.8553885989623156
  0.9128572991252732  0.9527756902749034  0.1446114370376807
  0.4128572721252673  0.9527756902749034  0.3553885749623134
  0.5871427008747268  0.0472242657251001  0.6446114490376813
  0.9128572991252734  0.5472242627250963  0.1446114370376807
  0.0871427278747326  0.4527757372749037  0.8553885989623156
  0.5871427008747266  0.4527757372749037  0.6446114490376813
  0.4128572721252673  0.5472242627250963  0.3553885749623134
 
  0.00000000E+00  0.00000000E+00  0.00000000E+00
  0.00000000E+00  0.00000000E+00  0.00000000E+00
  0.00000000E+00  0.00000000E+00  0.00000000E+00
  0.00000000E+00  0.00000000E+00  0.00000000E+00
  0.00000000E+00  0.00000000E+00  0.00000000E+00
  0.00000000E+00  0.00000000E+00  0.00000000E+00
  0.00000000E+00  0.00000000E+00  0.00000000E+00
  0.00000000E+00  0.00000000E+00  0.00000000E+00
  0.00000000E+00  0.00000000E+00  0.00000000E+00
  0.00000000E+00  0.00000000E+00  0.00000000E+00
  0.00000000E+00  0.00000000E+00  0.00000000E+00
  0.00000000E+00  0.00000000E+00  0.00000000E+00
  0.00000000E+00  0.00000000E+00  0.00000000E+00
  0.00000000E+00  0.00000000E+00  0.00000000E+00
  0.00000000E+00  0.00000000E+00  0.00000000E+00
  0.00000000E+00  0.00000000E+00  0.00000000E+00
  0.00000000E+00  0.00000000E+00  0.00000000E+00
  0.00000000E+00  0.00000000E+00  0.00000000E+00
  0.00000000E+00  0.00000000E+00  0.00000000E+00
  0.00000000E+00  0.00000000E+00  0.00000000E+00
  0.00000000E+00  0.00000000E+00  0.00000000E+00
  0.00000000E+00  0.00000000E+00  0.00000000E+00
  0.00000000E+00  0.00000000E+00  0.00000000E+00
  0.00000000E+00  0.00000000E+00  0.00000000E+00
  0.00000000E+00  0.00000000E+00  0.00000000E+00
  0.00000000E+00  0.00000000E+00  0.00000000E+00
  0.00000000E+00  0.00000000E+00  0.00000000E+00
  0.00000000E+00  0.00000000E+00  0.00000000E+00
  0.00000000E+00  0.00000000E+00  0.00000000E+00
  0.00000000E+00  0.00000000E+00  0.00000000E+00
  0.00000000E+00  0.00000000E+00  0.00000000E+00
  0.00000000E+00  0.00000000E+00  0.00000000E+00
  0.00000000E+00  0.00000000E+00  0.00000000E+00
  0.00000000E+00  0.00000000E+00  0.00000000E+00
  0.00000000E+00  0.00000000E+00  0.00000000E+00
  0.00000000E+00  0.00000000E+00  0.00000000E+00
  0.00000000E+00  0.00000000E+00  0.00000000E+00
  0.00000000E+00  0.00000000E+00  0.00000000E+00
  0.00000000E+00  0.00000000E+00  0.00000000E+00
  0.00000000E+00  0.00000000E+00  0.00000000E+00
  0.00000000E+00  0.00000000E+00  0.00000000E+00
  0.00000000E+00  0.00000000E+00  0.00000000E+00
  0.00000000E+00  0.00000000E+00  0.00000000E+00
  0.00000000E+00  0.00000000E+00  0.00000000E+00
  0.00000000E+00  0.00000000E+00  0.00000000E+00
  0.00000000E+00  0.00000000E+00  0.00000000E+00
  0.00000000E+00  0.00000000E+00  0.00000000E+00
  0.00000000E+00  0.00000000E+00  0.00000000E+00
  0.00000000E+00  0.00000000E+00  0.00000000E+00
  0.00000000E+00  0.00000000E+00  0.00000000E+00
  0.00000000E+00  0.00000000E+00  0.00000000E+00
  0.00000000E+00  0.00000000E+00  0.00000000E+00
  0.00000000E+00  0.00000000E+00  0.00000000E+00
  0.00000000E+00  0.00000000E+00  0.00000000E+00
  0.00000000E+00  0.00000000E+00  0.00000000E+00
  0.00000000E+00  0.00000000E+00  0.00000000E+00
  0.00000000E+00  0.00000000E+00  0.00000000E+00
  0.00000000E+00  0.00000000E+00  0.00000000E+00
  0.00000000E+00  0.00000000E+00  0.00000000E+00
  0.00000000E+00  0.00000000E+00  0.00000000E+00
  0.00000000E+00  0.00000000E+00  0.00000000E+00
  0.00000000E+00  0.00000000E+00  0.00000000E+00
  0.00000000E+00  0.00000000E+00  0.00000000E+00
  0.00000000E+00  0.00000000E+00  0.00000000E+00
  0.00000000E+00  0.00000000E+00  0.00000000E+00
  0.00000000E+00  0.00000000E+00  0.00000000E+00
  0.00000000E+00  0.00000000E+00  0.00000000E+00
  0.00000000E+00  0.00000000E+00  0.00000000E+00
  0.00000000E+00  0.00000000E+00  0.00000000E+00
  0.00000000E+00  0.00000000E+00  0.00000000E+00
  0.00000000E+00  0.00000000E+00  0.00000000E+00
  0.00000000E+00  0.00000000E+00  0.00000000E+00
  0.00000000E+00  0.00000000E+00  0.00000000E+00
  0.00000000E+00  0.00000000E+00  0.00000000E+00
  0.00000000E+00  0.00000000E+00  0.00000000E+00
  0.00000000E+00  0.00000000E+00  0.00000000E+00
  0.00000000E+00  0.00000000E+00  0.00000000E+00
  0.00000000E+00  0.00000000E+00  0.00000000E+00
  0.00000000E+00  0.00000000E+00  0.00000000E+00
  0.00000000E+00  0.00000000E+00  0.00000000E+00
  0.00000000E+00  0.00000000E+00  0.00000000E+00
  0.00000000E+00  0.00000000E+00  0.00000000E+00
  0.00000000E+00  0.00000000E+00  0.00000000E+00
  0.00000000E+00  0.00000000E+00  0.00000000E+00
  0.00000000E+00  0.00000000E+00  0.00000000E+00
  0.00000000E+00  0.00000000E+00  0.00000000E+00
  0.00000000E+00  0.00000000E+00  0.00000000E+00
  0.00000000E+00  0.00000000E+00  0.00000000E+00
  0.00000000E+00  0.00000000E+00  0.00000000E+00
  0.00000000E+00  0.00000000E+00  0.00000000E+00
  0.00000000E+00  0.00000000E+00  0.00000000E+00
  0.00000000E+00  0.00000000E+00  0.00000000E+00
  0.00000000E+00  0.00000000E+00  0.00000000E+00
  0.00000000E+00  0.00000000E+00  0.00000000E+00
  0.00000000E+00  0.00000000E+00  0.00000000E+00
  0.00000000E+00  0.00000000E+00  0.00000000E+00
  0.00000000E+00  0.00000000E+00  0.00000000E+00
  0.00000000E+00  0.00000000E+00  0.00000000E+00
  0.00000000E+00  0.00000000E+00  0.00000000E+00
  0.00000000E+00  0.00000000E+00  0.00000000E+00
  0.00000000E+00  0.00000000E+00  0.00000000E+00
  0.00000000E+00  0.00000000E+00  0.00000000E+00
  0.00000000E+00  0.00000000E+00  0.00000000E+00
  0.00000000E+00  0.00000000E+00  0.00000000E+00
  0.00000000E+00  0.00000000E+00  0.00000000E+00
  0.00000000E+00  0.00000000E+00  0.00000000E+00
  0.00000000E+00  0.00000000E+00  0.00000000E+00
  0.00000000E+00  0.00000000E+00  0.00000000E+00
  0.00000000E+00  0.00000000E+00  0.00000000E+00
  0.00000000E+00  0.00000000E+00  0.00000000E+00
  0.00000000E+00  0.00000000E+00  0.00000000E+00
  0.00000000E+00  0.00000000E+00  0.00000000E+00
  0.00000000E+00  0.00000000E+00  0.00000000E+00
  0.00000000E+00  0.00000000E+00  0.00000000E+00
  0.00000000E+00  0.00000000E+00  0.00000000E+00
  0.00000000E+00  0.00000000E+00  0.00000000E+00
