i4 pb, 2(c3 h7 n2)                      
   1.00000000000000     
     8.8224311957782238    0.0000000000000000   -0.0000000000000000
     0.0000000000000000   19.6968627662251095    0.0000000000000000
     0.0000000000000000    0.0000000000000000   10.1726937855213961
   Pb   I    N    H    C 
     4    16    16    56    24
Direct
  0.6627207623765656  0.2500000000000000  0.9948518376949754
  0.3372792656234367  0.7500000000000000  0.0051481433050259
  0.8372792376234344  0.7500000000000000  0.4948518376949761
  0.1627207343765632  0.2500000000000000  0.5051481143050277
  0.9074816332611928  0.2500000000000000  0.2130066566458479
  0.0925183947388097  0.7500000000000000  0.7869933433541525
  0.5925183667388072  0.7500000000000000  0.7130066566458475
  0.4074816332611926  0.2500000000000000  0.2869933433541519
  0.9359459534130458  0.2500000000000000  0.8054186054614921
  0.0640540675869523  0.7500000000000000  0.1945813945385081
  0.5640541015869481  0.7500000000000000  0.3054186054614921
  0.4359459254130505  0.2500000000000000  0.6945813945385079
  0.6385613975056483  0.0880149909346717  0.0182097743561626
  0.3614386024943511  0.9119849920653161  0.9817902686438372
  0.8614386024943517  0.9119849920653161  0.5182097803561562
  0.1385613975056419  0.0880149909346717  0.4817902196438443
  0.3614386024943511  0.5880150079346839  0.9817902686438372
  0.6385613975056483  0.4119849920653235  0.0182097743561626
  0.1385613975056419  0.4119849920653235  0.4817902196438443
  0.8614386024943517  0.5880150079346839  0.5182097803561562
  0.9870321293340008  0.0097005466621056  0.8367330696031032
  0.0129679086660022  0.9902994493379008  0.1632669663969001
  0.5129678706659994  0.9902994493379008  0.3367330206031026
  0.4870321293340008  0.0097005466621056  0.6632669793968973
  0.0129679086660022  0.5097005506620992  0.1632669663969001
  0.9870321293340006  0.4902994493379012  0.8367330696031032
  0.4870321293340009  0.4902994493379012  0.6632669793968973
  0.5129678706659994  0.5097005506620992  0.3367330206031026
  0.2500233019650747  0.0895123679677364  0.1231442153341332
  0.7499767250349236  0.9104876320322633  0.8768558086658694
  0.2499766980349254  0.9104876320322633  0.6231441913341306
  0.7500232749650764  0.0895123679677364  0.3768557846658668
  0.7499767250349236  0.5895124149677370  0.8768558086658694
  0.2500233019650747  0.4104876320322638  0.1231442153341332
  0.7500232749650764  0.4104876320322638  0.3768557846658668
  0.2499766980349254  0.5895124149677370  0.6231441913341306
  0.1772043235793596  0.0479268129760586  0.1378777216809891
  0.8227956764206409  0.9520731990239425  0.8621222173190098
  0.3227957044206427  0.9520731990239425  0.6378777336809897
  0.6772043235793591  0.0479268129760586  0.3621222903190121
  0.8227956764206409  0.5479268009760575  0.8621222173190098
  0.1772043235793596  0.4520731990239422  0.1378777216809891
  0.6772043235793591  0.4520731990239422  0.3621222903190121
  0.3227957044206427  0.5479268009760575  0.6378777336809897
  0.2508260388130930  0.1172406534849148  0.2102736559571691
  0.7491739331869051  0.8827593935150857  0.7897263440428308
  0.2491739611869069  0.8827593935150857  0.7102736559571692
  0.7508260668130949  0.1172406534849148  0.2897263440428309
  0.7491739331869051  0.6172406534849146  0.7897263440428308
  0.2508260388130930  0.3827593705150871  0.2102736559571691
  0.7508260668130949  0.3827593705150871  0.2897263440428309
  0.2491739611869069  0.6172406534849146  0.7102736559571692
  0.3615792538346352  0.0732916803679491  0.1060284972817564
  0.6384207461653656  0.9267083546320506  0.8939715267182460
  0.1384207601653664  0.9267083546320506  0.6060285212817509
  0.8615792538346344  0.0732916803679491  0.3939715027182435
  0.6384207461653656  0.5732916923679497  0.8939715267182460
  0.3615792538346352  0.4267083076320501  0.1060284972817564
  0.8615792538346344  0.4267083076320501  0.3939715027182435
  0.1384207601653664  0.5732916923679497  0.6060285212817509
  0.2039550271898068  0.1349557740872842  0.7989237373958727
  0.7960449308101899  0.8650442259127159  0.2010762506041267
  0.2960449588101922  0.8650442259127159  0.2989237613958672
  0.7039550691898101  0.1349557740872842  0.7010762626041273
  0.7960449308101899  0.6349557740872841  0.2010762506041267
  0.2039550271898068  0.3650442029127104  0.7989237373958727
  0.7039550691898101  0.3650442029127104  0.7010762626041273
  0.2960449588101922  0.6349557740872841  0.2989237613958672
  0.3201536833485630  0.0709346842181657  0.8679482668225268
  0.6798463166514370  0.9290653157818271  0.1320516601774777
  0.1798463166514370  0.9290653157818271  0.3679483398225222
  0.8201536833485630  0.0709346842181657  0.6320516851774763
  0.6798463166514370  0.5709346842181729  0.1320516601774777
  0.3201536833485630  0.4290653157818345  0.8679482668225268
  0.8201536833485630  0.4290653157818345  0.6320516851774763
  0.1798463166514370  0.5709346842181729  0.3679483398225222
  0.2699048582456599  0.1783379759626209  0.0091257682557757
  0.7300951147543412  0.8216620120373845  0.9908742337442245
  0.2300951417543397  0.8216620120373845  0.5091257662557755
  0.7699048852456588  0.1783379759626209  0.4908742337442245
  0.7300951147543412  0.6783379879626155  0.9908742337442245
  0.2699048582456599  0.3216620120373856  0.0091257682557757
  0.7699048852456588  0.3216620120373856  0.4908742337442245
  0.2300951417543397  0.6783379879626155  0.5091257662557755
  0.0801846352881770  0.1492512086861414  0.0320770882171733
  0.9198153517118255  0.8507488153138606  0.9679229167828237
  0.4198153517118186  0.8507488153138606  0.5320770832171763
  0.5801846482881745  0.1492512086861414  0.4679229167828308
  0.9198153517118255  0.6492511846861394  0.9679229167828237
  0.0801846352881770  0.3507487913138586  0.0320770882171733
  0.5801846482881745  0.3507487913138586  0.4679229167828308
  0.4198153517118186  0.6492511846861394  0.5320770832171763
  0.2094915629467493  0.0965928925136792  0.8776168645042233
  0.7905084370532507  0.9034071134863213  0.1223831604957755
  0.2905084090532485  0.9034071134863213  0.3776168395042243
  0.7094915629467493  0.0965928925136792  0.6223831354957767
  0.7905084370532507  0.5965928865136787  0.1223831604957755
  0.2094915629467493  0.4034071134863212  0.8776168645042233
  0.7094915629467493  0.4034071134863212  0.6223831354957767
  0.2905084090532484  0.5965928865136787  0.3776168395042243
  0.1967709240466164  0.1333015025759438  0.0107350962714522
  0.8032290899533846  0.8666984744240579  0.9892649057285479
  0.3032290619533826  0.8666984744240579  0.5107351432714526
  0.6967709100466154  0.1333015025759438  0.4892649057285477
  0.8032290899533846  0.6333015255759421  0.9892649057285479
  0.1967709240466164  0.3666984974240564  0.0107350962714522
  0.6967709100466154  0.3666984974240564  0.4892649057285477
  0.3032290619533826  0.6333015255759421  0.5107351432714526
  0.0882618992762394  0.0478191499021682  0.8546477052747750
  0.9117381277237664  0.9521808060978355  0.1453523307252211
  0.4117381007237606  0.9521808060978355  0.3546476812747728
  0.5882618722762336  0.0478191499021682  0.6453523427252219
  0.9117381277237664  0.5478191469021642  0.1453523307252211
  0.0882618992762394  0.4521808530978356  0.8546477052747750
  0.5882618722762336  0.4521808530978356  0.6453523427252219
  0.4117381007237605  0.5478191469021642  0.3546476812747728
 
  0.00000000E+00  0.00000000E+00  0.00000000E+00
  0.00000000E+00  0.00000000E+00  0.00000000E+00
  0.00000000E+00  0.00000000E+00  0.00000000E+00
  0.00000000E+00  0.00000000E+00  0.00000000E+00
  0.00000000E+00  0.00000000E+00  0.00000000E+00
  0.00000000E+00  0.00000000E+00  0.00000000E+00
  0.00000000E+00  0.00000000E+00  0.00000000E+00
  0.00000000E+00  0.00000000E+00  0.00000000E+00
  0.00000000E+00  0.00000000E+00  0.00000000E+00
  0.00000000E+00  0.00000000E+00  0.00000000E+00
  0.00000000E+00  0.00000000E+00  0.00000000E+00
  0.00000000E+00  0.00000000E+00  0.00000000E+00
  0.00000000E+00  0.00000000E+00  0.00000000E+00
  0.00000000E+00  0.00000000E+00  0.00000000E+00
  0.00000000E+00  0.00000000E+00  0.00000000E+00
  0.00000000E+00  0.00000000E+00  0.00000000E+00
  0.00000000E+00  0.00000000E+00  0.00000000E+00
  0.00000000E+00  0.00000000E+00  0.00000000E+00
  0.00000000E+00  0.00000000E+00  0.00000000E+00
  0.00000000E+00  0.00000000E+00  0.00000000E+00
  0.00000000E+00  0.00000000E+00  0.00000000E+00
  0.00000000E+00  0.00000000E+00  0.00000000E+00
  0.00000000E+00  0.00000000E+00  0.00000000E+00
  0.00000000E+00  0.00000000E+00  0.00000000E+00
  0.00000000E+00  0.00000000E+00  0.00000000E+00
  0.00000000E+00  0.00000000E+00  0.00000000E+00
  0.00000000E+00  0.00000000E+00  0.00000000E+00
  0.00000000E+00  0.00000000E+00  0.00000000E+00
  0.00000000E+00  0.00000000E+00  0.00000000E+00
  0.00000000E+00  0.00000000E+00  0.00000000E+00
  0.00000000E+00  0.00000000E+00  0.00000000E+00
  0.00000000E+00  0.00000000E+00  0.00000000E+00
  0.00000000E+00  0.00000000E+00  0.00000000E+00
  0.00000000E+00  0.00000000E+00  0.00000000E+00
  0.00000000E+00  0.00000000E+00  0.00000000E+00
  0.00000000E+00  0.00000000E+00  0.00000000E+00
  0.00000000E+00  0.00000000E+00  0.00000000E+00
  0.00000000E+00  0.00000000E+00  0.00000000E+00
  0.00000000E+00  0.00000000E+00  0.00000000E+00
  0.00000000E+00  0.00000000E+00  0.00000000E+00
  0.00000000E+00  0.00000000E+00  0.00000000E+00
  0.00000000E+00  0.00000000E+00  0.00000000E+00
  0.00000000E+00  0.00000000E+00  0.00000000E+00
  0.00000000E+00  0.00000000E+00  0.00000000E+00
  0.00000000E+00  0.00000000E+00  0.00000000E+00
  0.00000000E+00  0.00000000E+00  0.00000000E+00
  0.00000000E+00  0.00000000E+00  0.00000000E+00
  0.00000000E+00  0.00000000E+00  0.00000000E+00
  0.00000000E+00  0.00000000E+00  0.00000000E+00
  0.00000000E+00  0.00000000E+00  0.00000000E+00
  0.00000000E+00  0.00000000E+00  0.00000000E+00
  0.00000000E+00  0.00000000E+00  0.00000000E+00
  0.00000000E+00  0.00000000E+00  0.00000000E+00
  0.00000000E+00  0.00000000E+00  0.00000000E+00
  0.00000000E+00  0.00000000E+00  0.00000000E+00
  0.00000000E+00  0.00000000E+00  0.00000000E+00
  0.00000000E+00  0.00000000E+00  0.00000000E+00
  0.00000000E+00  0.00000000E+00  0.00000000E+00
  0.00000000E+00  0.00000000E+00  0.00000000E+00
  0.00000000E+00  0.00000000E+00  0.00000000E+00
  0.00000000E+00  0.00000000E+00  0.00000000E+00
  0.00000000E+00  0.00000000E+00  0.00000000E+00
  0.00000000E+00  0.00000000E+00  0.00000000E+00
  0.00000000E+00  0.00000000E+00  0.00000000E+00
  0.00000000E+00  0.00000000E+00  0.00000000E+00
  0.00000000E+00  0.00000000E+00  0.00000000E+00
  0.00000000E+00  0.00000000E+00  0.00000000E+00
  0.00000000E+00  0.00000000E+00  0.00000000E+00
  0.00000000E+00  0.00000000E+00  0.00000000E+00
  0.00000000E+00  0.00000000E+00  0.00000000E+00
  0.00000000E+00  0.00000000E+00  0.00000000E+00
  0.00000000E+00  0.00000000E+00  0.00000000E+00
  0.00000000E+00  0.00000000E+00  0.00000000E+00
  0.00000000E+00  0.00000000E+00  0.00000000E+00
  0.00000000E+00  0.00000000E+00  0.00000000E+00
  0.00000000E+00  0.00000000E+00  0.00000000E+00
  0.00000000E+00  0.00000000E+00  0.00000000E+00
  0.00000000E+00  0.00000000E+00  0.00000000E+00
  0.00000000E+00  0.00000000E+00  0.00000000E+00
  0.00000000E+00  0.00000000E+00  0.00000000E+00
  0.00000000E+00  0.00000000E+00  0.00000000E+00
  0.00000000E+00  0.00000000E+00  0.00000000E+00
  0.00000000E+00  0.00000000E+00  0.00000000E+00
  0.00000000E+00  0.00000000E+00  0.00000000E+00
  0.00000000E+00  0.00000000E+00  0.00000000E+00
  0.00000000E+00  0.00000000E+00  0.00000000E+00
  0.00000000E+00  0.00000000E+00  0.00000000E+00
  0.00000000E+00  0.00000000E+00  0.00000000E+00
  0.00000000E+00  0.00000000E+00  0.00000000E+00
  0.00000000E+00  0.00000000E+00  0.00000000E+00
  0.00000000E+00  0.00000000E+00  0.00000000E+00
  0.00000000E+00  0.00000000E+00  0.00000000E+00
  0.00000000E+00  0.00000000E+00  0.00000000E+00
  0.00000000E+00  0.00000000E+00  0.00000000E+00
  0.00000000E+00  0.00000000E+00  0.00000000E+00
  0.00000000E+00  0.00000000E+00  0.00000000E+00
  0.00000000E+00  0.00000000E+00  0.00000000E+00
  0.00000000E+00  0.00000000E+00  0.00000000E+00
  0.00000000E+00  0.00000000E+00  0.00000000E+00
  0.00000000E+00  0.00000000E+00  0.00000000E+00
  0.00000000E+00  0.00000000E+00  0.00000000E+00
  0.00000000E+00  0.00000000E+00  0.00000000E+00
  0.00000000E+00  0.00000000E+00  0.00000000E+00
  0.00000000E+00  0.00000000E+00  0.00000000E+00
  0.00000000E+00  0.00000000E+00  0.00000000E+00
  0.00000000E+00  0.00000000E+00  0.00000000E+00
  0.00000000E+00  0.00000000E+00  0.00000000E+00
  0.00000000E+00  0.00000000E+00  0.00000000E+00
  0.00000000E+00  0.00000000E+00  0.00000000E+00
  0.00000000E+00  0.00000000E+00  0.00000000E+00
  0.00000000E+00  0.00000000E+00  0.00000000E+00
  0.00000000E+00  0.00000000E+00  0.00000000E+00
  0.00000000E+00  0.00000000E+00  0.00000000E+00
  0.00000000E+00  0.00000000E+00  0.00000000E+00
  0.00000000E+00  0.00000000E+00  0.00000000E+00
  0.00000000E+00  0.00000000E+00  0.00000000E+00
