i4 pb, 2(c3 h7 n2)                      
   1.00000000000000     
     8.5306799174351298    0.0000000000000000   -0.0000000000000000
     0.0000000000000000   19.3740869976077796    0.0000000000000000
    -0.0000000000000000    0.0000000000000000    9.9492600244453193
   Pb   I    N    H    C 
     4    16    16    56    24
Direct
  0.6238149403827397  0.2500000000000000  0.9920994736898759
  0.3761850876172628  0.7500000000000000  0.0079005073101260
  0.8761850596172603  0.7500000000000000  0.4920994736898761
  0.1238149123827373  0.2500000000000000  0.5079004783101272
  0.9095115500834128  0.2500000000000000  0.2055397840833483
  0.0904884779165896  0.7500000000000000  0.7944602159166515
  0.5904884499165872  0.7500000000000000  0.7055397840833485
  0.4095115500834126  0.2500000000000000  0.2944602159166517
  0.9373969982748338  0.2500000000000000  0.8155537169235257
  0.0626030227251644  0.7500000000000000  0.1844462830764742
  0.5626030567251601  0.7500000000000000  0.3155537169235257
  0.4373969702748386  0.2500000000000000  0.6844462830764743
  0.6454964953752356  0.0872405970975814  0.0127267827684402
  0.3545035046247645  0.9127593859024065  0.9872732602315599
  0.8545035046247644  0.9127593859024065  0.5127267887684335
  0.1454964953752283  0.0872405970975814  0.4872732112315664
  0.3545035046247645  0.5872406140975935  0.9872732602315599
  0.6454964953752356  0.4127593859024136  0.0127267827684402
  0.1454964953752283  0.4127593859024136  0.4872732112315664
  0.8545035046247644  0.5872406140975935  0.5127267887684335
  0.9858923283025280  0.0092711809818574  0.8345731262594729
  0.0141077096974751  0.9907288150181495  0.1654269097405301
  0.5141076716974720  0.9907288150181495  0.3345730772594724
  0.4858923283025280  0.0092711809818574  0.6654269227405276
  0.0141077096974751  0.5092711849818505  0.1654269097405301
  0.9858923283025280  0.4907288150181494  0.8345731262594729
  0.4858923283025280  0.4907288150181494  0.6654269227405276
  0.5141076716974720  0.5092711849818505  0.3345730772594724
  0.2553492996800395  0.0908249174709466  0.1269797903338245
  0.7446507273199592  0.9091750825290534  0.8730202336661774
  0.2446507003199606  0.9091750825290534  0.6269797663338226
  0.7553492726800408  0.0908249174709466  0.3730202096661754
  0.7446507273199592  0.5908249644709469  0.8730202336661774
  0.2553492996800395  0.4091750825290534  0.1269797903338245
  0.7553492726800408  0.4091750825290534  0.3730202096661754
  0.2446507003199606  0.5908249644709469  0.6269797663338226
  0.1766463558847669  0.0495742478651238  0.1446467095806376
  0.8233536441152330  0.9504257641348771  0.8553532294193610
  0.3233536721152354  0.9504257641348771  0.6446467215806385
  0.6766463558847670  0.0495742478651238  0.3553533024193635
  0.8233536441152330  0.5495742358651229  0.8553532294193610
  0.1766463558847669  0.4504257641348772  0.1446467095806376
  0.6766463558847670  0.4504257641348772  0.3553533024193635
  0.3233536721152354  0.5495742358651229  0.6446467215806385
  0.2613307670513589  0.1201919281022002  0.2148692779532441
  0.7386692049486461  0.8798081188978002  0.7851307220467559
  0.2386692329486483  0.8798081188978002  0.7148692779532441
  0.7613307950513539  0.1201919281022002  0.2851307220467559
  0.7386692049486461  0.6201919281022001  0.7851307220467559
  0.2613307670513589  0.3798080958978018  0.2148692779532441
  0.7613307950513539  0.3798080958978018  0.2851307220467559
  0.2386692329486483  0.6201919281022001  0.7148692779532441
  0.3692353590172336  0.0724012395341448  0.1076432565685477
  0.6307646409827666  0.9275987954658618  0.8923567674314543
  0.1307646549827675  0.9275987954658618  0.6076432805685426
  0.8692353590172334  0.0724012395341448  0.3923567434314523
  0.6307646409827666  0.5724012515341386  0.8923567674314543
  0.3692353590172336  0.4275987484658542  0.1076432565685477
  0.8692353590172334  0.4275987484658542  0.3923567434314523
  0.1307646549827675  0.5724012515341386  0.6076432805685426
  0.2097088032489910  0.1362925214376697  0.7960829460997920
  0.7902911547510055  0.8637074785623305  0.2039170419002068
  0.2902911827510078  0.8637074785623305  0.2960829700997871
  0.7097088452489945  0.1362925214376697  0.7039170539002080
  0.7902911547510055  0.6362925214376695  0.2039170419002068
  0.2097088032489910  0.3637074555623249  0.7960829460997920
  0.7097088452489945  0.3637074555623249  0.7039170539002080
  0.2902911827510078  0.6362925214376695  0.2960829700997871
  0.3299068135020222  0.0713246458860334  0.8677567675783956
  0.6700931864979779  0.9286753541139595  0.1322431594216021
  0.1700931864979778  0.9286753541139595  0.3677568405783979
  0.8299068135020221  0.0713246458860334  0.6322431844216004
  0.6700931864979779  0.5713246458860405  0.1322431594216021
  0.3299068135020222  0.4286753541139665  0.8677567675783956
  0.8299068135020221  0.4286753541139665  0.6322431844216004
  0.1700931864979778  0.5713246458860405  0.3677568405783979
  0.2777672445861137  0.1806923356462366  0.0099363259095191
  0.7222327284138876  0.8193076523537698  0.9900636760904808
  0.2222327554138862  0.8193076523537698  0.5099363239095192
  0.7777672715861124  0.1806923356462366  0.4900636760904810
  0.7222327284138876  0.6806923476462302  0.9900636760904808
  0.2777672445861137  0.3193076523537695  0.0099363259095191
  0.7777672715861124  0.3193076523537695  0.4900636760904810
  0.2222327554138862  0.6806923476462302  0.5099363239095192
  0.0813749262077890  0.1518964803752865  0.0332331030797942
  0.9186250607922135  0.8481035436247153  0.9667669019202026
  0.4186250607922064  0.8481035436247153  0.5332330980797974
  0.5813749392077865  0.1518964803752865  0.4667669019202099
  0.9186250607922135  0.6518964563752847  0.9667669019202026
  0.0813749262077890  0.3481035196247134  0.0332331030797942
  0.5813749392077865  0.3481035196247134  0.4667669019202099
  0.4186250607922064  0.6518964563752847  0.5332330980797974
  0.2148955753340012  0.0973859911640824  0.8772490287419571
  0.7851044246659988  0.9026140148359182  0.1227509962580413
  0.2851043966659966  0.9026140148359182  0.3772490037419587
  0.7148955753340012  0.0973859911640824  0.6227509712580429
  0.7851044246659988  0.5973859851640818  0.1227509962580413
  0.2148955753340012  0.4026140148359181  0.8772490287419571
  0.7148955753340012  0.4026140148359181  0.6227509712580429
  0.2851043966659966  0.5973859851640818  0.3772490037419587
  0.2018008585321797  0.1347591675644621  0.0123530121501107
  0.7981991554678215  0.8652408094355396  0.9876469898498895
  0.2981991274678191  0.8652408094355396  0.5123530591501110
  0.7018008445321785  0.1347591675644621  0.4876469898498894
  0.7981991554678215  0.6347591905644604  0.9876469898498895
  0.2018008585321797  0.3652408324355378  0.0123530121501107
  0.7018008445321785  0.3652408324355378  0.4876469898498894
  0.2981991274678191  0.6347591905644604  0.5123530591501110
  0.0902474603709660  0.0480818372601696  0.8534780658282909
  0.9097525666290397  0.9519181187398337  0.1465219701717052
  0.4097525396290340  0.9519181187398337  0.3534780418282887
  0.5902474333709603  0.0480818372601696  0.6465219821717060
  0.9097525666290397  0.5480818342601660  0.1465219701717052
  0.0902474603709660  0.4519181657398342  0.8534780658282909
  0.5902474333709603  0.4519181657398342  0.6465219821717060
  0.4097525396290340  0.5480818342601660  0.3534780418282887
 
  0.00000000E+00  0.00000000E+00  0.00000000E+00
  0.00000000E+00  0.00000000E+00  0.00000000E+00
  0.00000000E+00  0.00000000E+00  0.00000000E+00
  0.00000000E+00  0.00000000E+00  0.00000000E+00
  0.00000000E+00  0.00000000E+00  0.00000000E+00
  0.00000000E+00  0.00000000E+00  0.00000000E+00
  0.00000000E+00  0.00000000E+00  0.00000000E+00
  0.00000000E+00  0.00000000E+00  0.00000000E+00
  0.00000000E+00  0.00000000E+00  0.00000000E+00
  0.00000000E+00  0.00000000E+00  0.00000000E+00
  0.00000000E+00  0.00000000E+00  0.00000000E+00
  0.00000000E+00  0.00000000E+00  0.00000000E+00
  0.00000000E+00  0.00000000E+00  0.00000000E+00
  0.00000000E+00  0.00000000E+00  0.00000000E+00
  0.00000000E+00  0.00000000E+00  0.00000000E+00
  0.00000000E+00  0.00000000E+00  0.00000000E+00
  0.00000000E+00  0.00000000E+00  0.00000000E+00
  0.00000000E+00  0.00000000E+00  0.00000000E+00
  0.00000000E+00  0.00000000E+00  0.00000000E+00
  0.00000000E+00  0.00000000E+00  0.00000000E+00
  0.00000000E+00  0.00000000E+00  0.00000000E+00
  0.00000000E+00  0.00000000E+00  0.00000000E+00
  0.00000000E+00  0.00000000E+00  0.00000000E+00
  0.00000000E+00  0.00000000E+00  0.00000000E+00
  0.00000000E+00  0.00000000E+00  0.00000000E+00
  0.00000000E+00  0.00000000E+00  0.00000000E+00
  0.00000000E+00  0.00000000E+00  0.00000000E+00
  0.00000000E+00  0.00000000E+00  0.00000000E+00
  0.00000000E+00  0.00000000E+00  0.00000000E+00
  0.00000000E+00  0.00000000E+00  0.00000000E+00
  0.00000000E+00  0.00000000E+00  0.00000000E+00
  0.00000000E+00  0.00000000E+00  0.00000000E+00
  0.00000000E+00  0.00000000E+00  0.00000000E+00
  0.00000000E+00  0.00000000E+00  0.00000000E+00
  0.00000000E+00  0.00000000E+00  0.00000000E+00
  0.00000000E+00  0.00000000E+00  0.00000000E+00
  0.00000000E+00  0.00000000E+00  0.00000000E+00
  0.00000000E+00  0.00000000E+00  0.00000000E+00
  0.00000000E+00  0.00000000E+00  0.00000000E+00
  0.00000000E+00  0.00000000E+00  0.00000000E+00
  0.00000000E+00  0.00000000E+00  0.00000000E+00
  0.00000000E+00  0.00000000E+00  0.00000000E+00
  0.00000000E+00  0.00000000E+00  0.00000000E+00
  0.00000000E+00  0.00000000E+00  0.00000000E+00
  0.00000000E+00  0.00000000E+00  0.00000000E+00
  0.00000000E+00  0.00000000E+00  0.00000000E+00
  0.00000000E+00  0.00000000E+00  0.00000000E+00
  0.00000000E+00  0.00000000E+00  0.00000000E+00
  0.00000000E+00  0.00000000E+00  0.00000000E+00
  0.00000000E+00  0.00000000E+00  0.00000000E+00
  0.00000000E+00  0.00000000E+00  0.00000000E+00
  0.00000000E+00  0.00000000E+00  0.00000000E+00
  0.00000000E+00  0.00000000E+00  0.00000000E+00
  0.00000000E+00  0.00000000E+00  0.00000000E+00
  0.00000000E+00  0.00000000E+00  0.00000000E+00
  0.00000000E+00  0.00000000E+00  0.00000000E+00
  0.00000000E+00  0.00000000E+00  0.00000000E+00
  0.00000000E+00  0.00000000E+00  0.00000000E+00
  0.00000000E+00  0.00000000E+00  0.00000000E+00
  0.00000000E+00  0.00000000E+00  0.00000000E+00
  0.00000000E+00  0.00000000E+00  0.00000000E+00
  0.00000000E+00  0.00000000E+00  0.00000000E+00
  0.00000000E+00  0.00000000E+00  0.00000000E+00
  0.00000000E+00  0.00000000E+00  0.00000000E+00
  0.00000000E+00  0.00000000E+00  0.00000000E+00
  0.00000000E+00  0.00000000E+00  0.00000000E+00
  0.00000000E+00  0.00000000E+00  0.00000000E+00
  0.00000000E+00  0.00000000E+00  0.00000000E+00
  0.00000000E+00  0.00000000E+00  0.00000000E+00
  0.00000000E+00  0.00000000E+00  0.00000000E+00
  0.00000000E+00  0.00000000E+00  0.00000000E+00
  0.00000000E+00  0.00000000E+00  0.00000000E+00
  0.00000000E+00  0.00000000E+00  0.00000000E+00
  0.00000000E+00  0.00000000E+00  0.00000000E+00
  0.00000000E+00  0.00000000E+00  0.00000000E+00
  0.00000000E+00  0.00000000E+00  0.00000000E+00
  0.00000000E+00  0.00000000E+00  0.00000000E+00
  0.00000000E+00  0.00000000E+00  0.00000000E+00
  0.00000000E+00  0.00000000E+00  0.00000000E+00
  0.00000000E+00  0.00000000E+00  0.00000000E+00
  0.00000000E+00  0.00000000E+00  0.00000000E+00
  0.00000000E+00  0.00000000E+00  0.00000000E+00
  0.00000000E+00  0.00000000E+00  0.00000000E+00
  0.00000000E+00  0.00000000E+00  0.00000000E+00
  0.00000000E+00  0.00000000E+00  0.00000000E+00
  0.00000000E+00  0.00000000E+00  0.00000000E+00
  0.00000000E+00  0.00000000E+00  0.00000000E+00
  0.00000000E+00  0.00000000E+00  0.00000000E+00
  0.00000000E+00  0.00000000E+00  0.00000000E+00
  0.00000000E+00  0.00000000E+00  0.00000000E+00
  0.00000000E+00  0.00000000E+00  0.00000000E+00
  0.00000000E+00  0.00000000E+00  0.00000000E+00
  0.00000000E+00  0.00000000E+00  0.00000000E+00
  0.00000000E+00  0.00000000E+00  0.00000000E+00
  0.00000000E+00  0.00000000E+00  0.00000000E+00
  0.00000000E+00  0.00000000E+00  0.00000000E+00
  0.00000000E+00  0.00000000E+00  0.00000000E+00
  0.00000000E+00  0.00000000E+00  0.00000000E+00
  0.00000000E+00  0.00000000E+00  0.00000000E+00
  0.00000000E+00  0.00000000E+00  0.00000000E+00
  0.00000000E+00  0.00000000E+00  0.00000000E+00
  0.00000000E+00  0.00000000E+00  0.00000000E+00
  0.00000000E+00  0.00000000E+00  0.00000000E+00
  0.00000000E+00  0.00000000E+00  0.00000000E+00
  0.00000000E+00  0.00000000E+00  0.00000000E+00
  0.00000000E+00  0.00000000E+00  0.00000000E+00
  0.00000000E+00  0.00000000E+00  0.00000000E+00
  0.00000000E+00  0.00000000E+00  0.00000000E+00
  0.00000000E+00  0.00000000E+00  0.00000000E+00
  0.00000000E+00  0.00000000E+00  0.00000000E+00
  0.00000000E+00  0.00000000E+00  0.00000000E+00
  0.00000000E+00  0.00000000E+00  0.00000000E+00
  0.00000000E+00  0.00000000E+00  0.00000000E+00
  0.00000000E+00  0.00000000E+00  0.00000000E+00
  0.00000000E+00  0.00000000E+00  0.00000000E+00
  0.00000000E+00  0.00000000E+00  0.00000000E+00
