i4 pb, 2(c3 h7 n2)                      
   1.00000000000000     
     8.9707306119310140    0.0000000000000000   -0.0000000000000000
     0.0000000000000000   19.8663490778859000    0.0000000000000000
    -0.0000000000000000    0.0000000000000000   10.2424026413016325
   Pb   I    N    H    C 
     4    16    16    56    24
Direct
  0.6613278117847075  0.2500000000000000  0.9943563146886627
  0.3386722162152947  0.7500000000000000  0.0056436663113392
  0.8386721882152925  0.7500000000000000  0.4943563146886626
  0.1613277837847051  0.2500000000000000  0.5056436373113404
  0.9130182672205704  0.2500000000000000  0.2166665319843743
  0.0869817607794320  0.7500000000000000  0.7833334680156255
  0.5869817327794296  0.7500000000000000  0.7166665319843745
  0.4130182672205702  0.2500000000000000  0.2833334680156258
  0.9429013858123066  0.2500000000000000  0.8032086450523226
  0.0570986351876916  0.7500000000000000  0.1967913549476776
  0.5570986691876872  0.7500000000000000  0.3032086450523224
  0.4429013578123115  0.2500000000000000  0.6967913549476774
  0.6363340245144917  0.0867722352982244  0.0192028620461886
  0.3636659754855084  0.9132277477017637  0.9807971809538117
  0.8636659754855083  0.9132277477017637  0.5192028680461817
  0.1363340245144846  0.0867722352982244  0.4807971319538181
  0.3636659754855084  0.5867722522982363  0.9807971809538117
  0.6363340245144917  0.4132277477017706  0.0192028620461886
  0.1363340245144846  0.4132277477017706  0.4807971319538181
  0.8636659754855083  0.5867722522982363  0.5192028680461817
  0.9882203848126505  0.0100863427040009  0.8380490390882439
  0.0117796531873524  0.9899136532960059  0.1619509969117594
  0.5117796151873495  0.9899136532960059  0.3380489900882431
  0.4882203848126507  0.0100863427040009  0.6619510099117566
  0.0117796531873524  0.5100863467039941  0.1619509969117594
  0.9882203848126505  0.4899136532960057  0.8380490390882439
  0.4882203848126507  0.4899136532960057  0.6619510099117566
  0.5117796151873495  0.5100863467039941  0.3380489900882431
  0.2489495316792305  0.0887082597842782  0.1224651231384733
  0.7510504953207677  0.9112917402157219  0.8775349008615282
  0.2510504683207698  0.9112917402157219  0.6224650991384718
  0.7489495046792323  0.0887082597842782  0.3775348768615266
  0.7510504953207677  0.5887083067842784  0.8775349008615282
  0.2489495316792305  0.4112917402157217  0.1224651231384733
  0.7489495046792323  0.4112917402157217  0.3775348768615266
  0.2510504683207698  0.5887083067842784  0.6224650991384718
  0.1779214270638578  0.0475085118170168  0.1359141720783605
  0.8220785729361428  0.9524915001829842  0.8640857669216381
  0.3220786009361448  0.9524915001829842  0.6359141840783614
  0.6779214270638572  0.0475085118170168  0.3640858399216404
  0.8220785729361428  0.5475084998170158  0.8640857669216381
  0.1779214270638578  0.4524915001829841  0.1359141720783605
  0.6779214270638572  0.4524915001829841  0.3640858399216404
  0.3220786009361448  0.5475084998170158  0.6359141840783614
  0.2487585476822193  0.1159379251823322  0.2088078883235342
  0.7512414243177783  0.8840621218176682  0.7911921116764657
  0.2512414523177806  0.8840621218176682  0.7088078883235343
  0.7487585756822217  0.1159379251823322  0.2911921116764658
  0.7512414243177783  0.6159379251823321  0.7911921116764657
  0.2487585476822193  0.3840620988176697  0.2088078883235342
  0.7487585756822217  0.3840620988176697  0.2911921116764658
  0.2512414523177806  0.6159379251823321  0.7088078883235343
  0.3583974877281760  0.0730185411472603  0.1054276637491736
  0.6416025122718241  0.9269814938527391  0.8945723602508286
  0.1416025262718254  0.9269814938527391  0.6054276877491682
  0.8583974877281759  0.0730185411472603  0.3945723362508264
  0.6416025122718241  0.5730185531472612  0.8945723602508286
  0.3583974877281760  0.4269814468527387  0.1054276637491736
  0.8583974877281759  0.4269814468527387  0.3945723362508264
  0.1416025262718254  0.5730185531472612  0.6054276877491682
  0.2023823791807521  0.1342749497082982  0.8000798024337923
  0.7976175788192443  0.8657250502917022  0.1999201855662066
  0.2976176068192466  0.8657250502917022  0.3000798264337874
  0.7023824211807557  0.1342749497082982  0.6999201975662077
  0.7976175788192443  0.6342749497082978  0.1999201855662066
  0.2023823791807521  0.3657250272916966  0.8000798024337923
  0.7023824211807557  0.3657250272916966  0.6999201975662077
  0.2976176068192466  0.6342749497082978  0.3000798264337874
  0.3153910044199784  0.0706962087919773  0.8676061524545500
  0.6846089955800219  0.9293037912080151  0.1323937745454551
  0.1846089955800219  0.9293037912080151  0.3676062254545449
  0.8153910044199781  0.0706962087919773  0.6323937995454532
  0.6846089955800219  0.5706962087919849  0.1323937745454551
  0.3153910044199784  0.4293037912080228  0.8676061524545500
  0.8153910044199781  0.4293037912080228  0.6323937995454532
  0.1846089955800219  0.5706962087919849  0.3676062254545449
  0.2679677084639411  0.1772246407642988  0.0088608510277190
  0.7320322645360604  0.8227753472357070  0.9911391509722813
  0.2320322915360589  0.8227753472357070  0.5088608490277187
  0.7679677354639396  0.1772246407642988  0.4911391509722812
  0.7320322645360604  0.6772246527642930  0.9911391509722813
  0.2679677084639411  0.3227753472357076  0.0088608510277190
  0.7679677354639396  0.3227753472357076  0.4911391509722812
  0.2320322915360589  0.6772246527642930  0.5088608490277187
  0.0822145471920714  0.1483841347009794  0.0322439359942300
  0.9177854398079311  0.8516158892990232  0.9677560690057668
  0.4177854398079241  0.8516158892990232  0.5322439309942332
  0.5822145601920689  0.1483841347009794  0.4677560690057738
  0.9177854398079311  0.6483841107009768  0.9677560690057668
  0.0822145471920714  0.3516158652990209  0.0322439359942300
  0.5822145601920689  0.3516158652990209  0.4677560690057738
  0.4177854398079241  0.6483841107009768  0.5322439309942332
  0.2076446712476845  0.0963194988800699  0.8773371990498848
  0.7923553287523153  0.9036805071199308  0.1226628259501139
  0.2923553007523129  0.9036805071199308  0.3773371740498859
  0.7076446712476847  0.0963194988800699  0.6226628009501152
  0.7923553287523153  0.5963194928800692  0.1226628259501139
  0.2076446712476845  0.4036805071199306  0.8773371990498848
  0.7076446712476847  0.4036805071199306  0.6226628009501152
  0.2923553007523129  0.5963194928800692  0.3773371740498859
  0.1959794655535333  0.1328617073674838  0.0101363217185023
  0.8040205484464678  0.8671382696325179  0.9898636802814973
  0.3040205204464653  0.8671382696325179  0.5101363687185032
  0.6959794515535322  0.1328617073674838  0.4898636802814978
  0.8040205484464678  0.6328617303674821  0.9898636802814973
  0.1959794655535333  0.3671382926325161  0.0101363217185023
  0.6959794515535322  0.3671382926325161  0.4898636802814978
  0.3040205204464653  0.6328617303674821  0.5101363687185032
  0.0875208746732320  0.0479331904625965  0.8546169790927013
  0.9124791523267735  0.9520667655374068  0.1453830569072944
  0.4124791253267682  0.9520667655374068  0.3546169550926993
  0.5875208476732265  0.0479331904625965  0.6453830689072956
  0.9124791523267735  0.5479331874625929  0.1453830569072944
  0.0875208746732320  0.4520668125374076  0.8546169790927013
  0.5875208476732265  0.4520668125374076  0.6453830689072956
  0.4124791253267682  0.5479331874625929  0.3546169550926993
 
  0.00000000E+00  0.00000000E+00  0.00000000E+00
  0.00000000E+00  0.00000000E+00  0.00000000E+00
  0.00000000E+00  0.00000000E+00  0.00000000E+00
  0.00000000E+00  0.00000000E+00  0.00000000E+00
  0.00000000E+00  0.00000000E+00  0.00000000E+00
  0.00000000E+00  0.00000000E+00  0.00000000E+00
  0.00000000E+00  0.00000000E+00  0.00000000E+00
  0.00000000E+00  0.00000000E+00  0.00000000E+00
  0.00000000E+00  0.00000000E+00  0.00000000E+00
  0.00000000E+00  0.00000000E+00  0.00000000E+00
  0.00000000E+00  0.00000000E+00  0.00000000E+00
  0.00000000E+00  0.00000000E+00  0.00000000E+00
  0.00000000E+00  0.00000000E+00  0.00000000E+00
  0.00000000E+00  0.00000000E+00  0.00000000E+00
  0.00000000E+00  0.00000000E+00  0.00000000E+00
  0.00000000E+00  0.00000000E+00  0.00000000E+00
  0.00000000E+00  0.00000000E+00  0.00000000E+00
  0.00000000E+00  0.00000000E+00  0.00000000E+00
  0.00000000E+00  0.00000000E+00  0.00000000E+00
  0.00000000E+00  0.00000000E+00  0.00000000E+00
  0.00000000E+00  0.00000000E+00  0.00000000E+00
  0.00000000E+00  0.00000000E+00  0.00000000E+00
  0.00000000E+00  0.00000000E+00  0.00000000E+00
  0.00000000E+00  0.00000000E+00  0.00000000E+00
  0.00000000E+00  0.00000000E+00  0.00000000E+00
  0.00000000E+00  0.00000000E+00  0.00000000E+00
  0.00000000E+00  0.00000000E+00  0.00000000E+00
  0.00000000E+00  0.00000000E+00  0.00000000E+00
  0.00000000E+00  0.00000000E+00  0.00000000E+00
  0.00000000E+00  0.00000000E+00  0.00000000E+00
  0.00000000E+00  0.00000000E+00  0.00000000E+00
  0.00000000E+00  0.00000000E+00  0.00000000E+00
  0.00000000E+00  0.00000000E+00  0.00000000E+00
  0.00000000E+00  0.00000000E+00  0.00000000E+00
  0.00000000E+00  0.00000000E+00  0.00000000E+00
  0.00000000E+00  0.00000000E+00  0.00000000E+00
  0.00000000E+00  0.00000000E+00  0.00000000E+00
  0.00000000E+00  0.00000000E+00  0.00000000E+00
  0.00000000E+00  0.00000000E+00  0.00000000E+00
  0.00000000E+00  0.00000000E+00  0.00000000E+00
  0.00000000E+00  0.00000000E+00  0.00000000E+00
  0.00000000E+00  0.00000000E+00  0.00000000E+00
  0.00000000E+00  0.00000000E+00  0.00000000E+00
  0.00000000E+00  0.00000000E+00  0.00000000E+00
  0.00000000E+00  0.00000000E+00  0.00000000E+00
  0.00000000E+00  0.00000000E+00  0.00000000E+00
  0.00000000E+00  0.00000000E+00  0.00000000E+00
  0.00000000E+00  0.00000000E+00  0.00000000E+00
  0.00000000E+00  0.00000000E+00  0.00000000E+00
  0.00000000E+00  0.00000000E+00  0.00000000E+00
  0.00000000E+00  0.00000000E+00  0.00000000E+00
  0.00000000E+00  0.00000000E+00  0.00000000E+00
  0.00000000E+00  0.00000000E+00  0.00000000E+00
  0.00000000E+00  0.00000000E+00  0.00000000E+00
  0.00000000E+00  0.00000000E+00  0.00000000E+00
  0.00000000E+00  0.00000000E+00  0.00000000E+00
  0.00000000E+00  0.00000000E+00  0.00000000E+00
  0.00000000E+00  0.00000000E+00  0.00000000E+00
  0.00000000E+00  0.00000000E+00  0.00000000E+00
  0.00000000E+00  0.00000000E+00  0.00000000E+00
  0.00000000E+00  0.00000000E+00  0.00000000E+00
  0.00000000E+00  0.00000000E+00  0.00000000E+00
  0.00000000E+00  0.00000000E+00  0.00000000E+00
  0.00000000E+00  0.00000000E+00  0.00000000E+00
  0.00000000E+00  0.00000000E+00  0.00000000E+00
  0.00000000E+00  0.00000000E+00  0.00000000E+00
  0.00000000E+00  0.00000000E+00  0.00000000E+00
  0.00000000E+00  0.00000000E+00  0.00000000E+00
  0.00000000E+00  0.00000000E+00  0.00000000E+00
  0.00000000E+00  0.00000000E+00  0.00000000E+00
  0.00000000E+00  0.00000000E+00  0.00000000E+00
  0.00000000E+00  0.00000000E+00  0.00000000E+00
  0.00000000E+00  0.00000000E+00  0.00000000E+00
  0.00000000E+00  0.00000000E+00  0.00000000E+00
  0.00000000E+00  0.00000000E+00  0.00000000E+00
  0.00000000E+00  0.00000000E+00  0.00000000E+00
  0.00000000E+00  0.00000000E+00  0.00000000E+00
  0.00000000E+00  0.00000000E+00  0.00000000E+00
  0.00000000E+00  0.00000000E+00  0.00000000E+00
  0.00000000E+00  0.00000000E+00  0.00000000E+00
  0.00000000E+00  0.00000000E+00  0.00000000E+00
  0.00000000E+00  0.00000000E+00  0.00000000E+00
  0.00000000E+00  0.00000000E+00  0.00000000E+00
  0.00000000E+00  0.00000000E+00  0.00000000E+00
  0.00000000E+00  0.00000000E+00  0.00000000E+00
  0.00000000E+00  0.00000000E+00  0.00000000E+00
  0.00000000E+00  0.00000000E+00  0.00000000E+00
  0.00000000E+00  0.00000000E+00  0.00000000E+00
  0.00000000E+00  0.00000000E+00  0.00000000E+00
  0.00000000E+00  0.00000000E+00  0.00000000E+00
  0.00000000E+00  0.00000000E+00  0.00000000E+00
  0.00000000E+00  0.00000000E+00  0.00000000E+00
  0.00000000E+00  0.00000000E+00  0.00000000E+00
  0.00000000E+00  0.00000000E+00  0.00000000E+00
  0.00000000E+00  0.00000000E+00  0.00000000E+00
  0.00000000E+00  0.00000000E+00  0.00000000E+00
  0.00000000E+00  0.00000000E+00  0.00000000E+00
  0.00000000E+00  0.00000000E+00  0.00000000E+00
  0.00000000E+00  0.00000000E+00  0.00000000E+00
  0.00000000E+00  0.00000000E+00  0.00000000E+00
  0.00000000E+00  0.00000000E+00  0.00000000E+00
  0.00000000E+00  0.00000000E+00  0.00000000E+00
  0.00000000E+00  0.00000000E+00  0.00000000E+00
  0.00000000E+00  0.00000000E+00  0.00000000E+00
  0.00000000E+00  0.00000000E+00  0.00000000E+00
  0.00000000E+00  0.00000000E+00  0.00000000E+00
  0.00000000E+00  0.00000000E+00  0.00000000E+00
  0.00000000E+00  0.00000000E+00  0.00000000E+00
  0.00000000E+00  0.00000000E+00  0.00000000E+00
  0.00000000E+00  0.00000000E+00  0.00000000E+00
  0.00000000E+00  0.00000000E+00  0.00000000E+00
  0.00000000E+00  0.00000000E+00  0.00000000E+00
  0.00000000E+00  0.00000000E+00  0.00000000E+00
  0.00000000E+00  0.00000000E+00  0.00000000E+00
  0.00000000E+00  0.00000000E+00  0.00000000E+00
  0.00000000E+00  0.00000000E+00  0.00000000E+00
