i4 pb, 2(c3 h7 n2)                      
   1.00000000000000     
     8.5067564650589063    0.0000000000000000   -0.0000000000000000
     0.0000000000000000   19.8015601799215766    0.0000000000000000
     0.0000000000000000    0.0000000000000000    9.7270828751030738
   Pb   I    N    H    C 
     4    16    16    56    24
Direct
  0.6640763091608519  0.2500000000000000  0.9981901328049647
  0.3359237188391504  0.7500000000000000  0.0018098481950375
  0.8359236908391481  0.7500000000000000  0.4981901328049644
  0.1640762811608495  0.2500000000000000  0.5018098191950384
  0.9235813497537966  0.2500000000000000  0.2374384333123251
  0.0764186782462062  0.7500000000000000  0.7625615666876745
  0.5764186502462034  0.7500000000000000  0.7374384333123255
  0.4235813497537962  0.2500000000000000  0.2625615666876748
  0.9374027586395880  0.2500000000000000  0.7728467675580762
  0.0625972623604103  0.7500000000000000  0.2271532324419238
  0.5625972963604059  0.7500000000000000  0.2728467675580762
  0.4374027306395927  0.2500000000000000  0.7271532324419238
  0.6507513515742021  0.0897014282772185  0.0152620174724677
  0.3492486484257987  0.9102985547227697  0.9847380255275323
  0.8492486484257979  0.9102985547227697  0.5152620234724611
  0.1507513515741946  0.0897014282772185  0.4847379765275390
  0.3492486484257987  0.5897014452772303  0.9847380255275323
  0.6507513515742021  0.4102985547227766  0.0152620174724677
  0.1507513515741946  0.4102985547227766  0.4847379765275390
  0.8492486484257979  0.5897014452772303  0.5152620234724611
  0.9867654353118862  0.0078686512791643  0.8288763932798495
  0.0132346026881173  0.9921313447208425  0.1711236427201528
  0.5132345646881138  0.9921313447208425  0.3288763442798497
  0.4867654353118855  0.0078686512791643  0.6711236557201510
  0.0132346026881173  0.5078686552791575  0.1711236427201528
  0.9867654353118862  0.4921313447208424  0.8288763932798495
  0.4867654353118855  0.4921313447208424  0.6711236557201510
  0.5132345646881138  0.5078686552791575  0.3288763442798497
  0.2486321874841807  0.0898997113180224  0.1266495202627666
  0.7513678395158180  0.9101002886819777  0.8733505037372353
  0.2513678125158195  0.9101002886819777  0.6266494962627647
  0.7486321604841820  0.0898997113180224  0.3733504797372333
  0.7513678395158180  0.5898997583180227  0.8733505037372353
  0.2486321874841807  0.4101002886819774  0.1266495202627666
  0.7486321604841820  0.4101002886819774  0.3733504797372333
  0.2513678125158195  0.5898997583180227  0.6266494962627647
  0.1745919080340746  0.0474392673840342  0.1399894533954659
  0.8254080919659249  0.9525607446159661  0.8600104856045325
  0.3254081199659279  0.9525607446159661  0.6399894653954670
  0.6745919080340751  0.0474392673840342  0.3600105586045350
  0.8254080919659249  0.5474392553840339  0.8600104856045325
  0.1745919080340746  0.4525607446159670  0.1399894533954659
  0.6745919080340751  0.4525607446159670  0.3600105586045350
  0.3254081199659279  0.5474392553840339  0.6399894653954670
  0.2438293402201177  0.1164417745018881  0.2196658500512397
  0.7561706317798796  0.8835582724981126  0.7803341499487600
  0.2561706597798823  0.8835582724981126  0.7196658500512400
  0.7438293682201204  0.1164417745018881  0.2803341499487598
  0.7561706317798796  0.6164417745018878  0.7803341499487600
  0.2438293402201177  0.3835582494981138  0.2196658500512397
  0.7438293682201204  0.3835582494981138  0.2803341499487598
  0.2561706597798823  0.6164417745018878  0.7196658500512400
  0.3659705618867290  0.0750538651817323  0.1117343540878748
  0.6340294381132713  0.9249461698182668  0.8882656699121274
  0.1340294521132723  0.9249461698182668  0.6117343780878695
  0.8659705618867287  0.0750538651817323  0.3882656459121252
  0.6340294381132713  0.5750538771817335  0.8882656699121274
  0.3659705618867290  0.4249461228182669  0.1117343540878748
  0.8659705618867287  0.4249461228182669  0.3882656459121252
  0.1340294521132723  0.5750538771817335  0.6117343780878695
  0.2038561009323191  0.1348836865707242  0.7881662487321567
  0.7961438570676771  0.8651163134292764  0.2118337392678431
  0.2961438850676795  0.8651163134292764  0.2881662727321506
  0.7038561429323229  0.1348836865707242  0.7118337512678433
  0.7961438570676771  0.6348836865707236  0.2118337392678431
  0.2038561009323191  0.3651162904292702  0.7881662487321567
  0.7038561429323229  0.3651162904292702  0.7118337512678433
  0.2961438850676795  0.6348836865707236  0.2881662727321506
  0.3276927892405111  0.0722931922335685  0.8610337260196200
  0.6723072107594887  0.9277068077664244  0.1389662009803848
  0.1723072107594890  0.9277068077664244  0.3610337990196147
  0.8276927892405113  0.0722931922335685  0.6389662259803831
  0.6723072107594887  0.5722931922335756  0.1389662009803848
  0.3276927892405111  0.4277068077664316  0.8610337260196200
  0.8276927892405113  0.4277068077664316  0.6389662259803831
  0.1723072107594890  0.5722931922335756  0.3610337990196147
  0.2700566846508486  0.1786048644289274  0.0081112849979742
  0.7299432883491530  0.8213951235710786  0.9918887170020255
  0.2299433153491516  0.8213951235710786  0.5081112829979745
  0.7700567116508470  0.1786048644289274  0.4918887170020260
  0.7299432883491530  0.6786048764289214  0.9918887170020255
  0.2700566846508486  0.3213951235710787  0.0081112849979742
  0.7700567116508470  0.3213951235710787  0.4918887170020260
  0.2299433153491516  0.6786048764289214  0.5081112829979745
  0.0733304083012292  0.1489369315631924  0.0299704391886849
  0.9266695786987734  0.8510630924368096  0.9700295658113118
  0.4266695786987663  0.8510630924368096  0.5299704341886882
  0.5733304213012266  0.1489369315631924  0.4700295658113192
  0.9266695786987734  0.6489369075631904  0.9700295658113118
  0.0733304083012292  0.3510630684368073  0.0299704391886849
  0.5733304213012266  0.3510630684368073  0.4700295658113192
  0.4266695786987663  0.6489369075631904  0.5299704341886882
  0.2112551181447375  0.0968282951018985  0.8712047194864844
  0.7887448818552626  0.9031717108981016  0.1287953055135144
  0.2887448538552600  0.9031717108981016  0.3712046944864857
  0.7112551181447374  0.0968282951018985  0.6287952805135156
  0.7887448818552626  0.5968282891018984  0.1287953055135144
  0.2112551181447375  0.4031717108981024  0.8712047194864844
  0.7112551181447374  0.4031717108981024  0.6287952805135156
  0.2887448538552600  0.5968282891018984  0.3712046944864857
  0.1952699275583159  0.1332462531597917  0.0094651135394408
  0.8047300864416853  0.8667537238402100  0.9905348884605589
  0.3047300584416832  0.8667537238402100  0.5094651605394416
  0.6952699135583147  0.1332462531597917  0.4905348884605594
  0.8047300864416853  0.6332462761597900  0.9905348884605589
  0.1952699275583159  0.3667537468402083  0.0094651135394408
  0.6952699135583147  0.3667537468402083  0.4905348884605594
  0.3047300584416832  0.6332462761597900  0.5094651605394416
  0.0890729702285899  0.0471254124636965  0.8470363862440781
  0.9109270567714159  0.9528745435363070  0.1529636497559176
  0.4109270297714100  0.9528745435363070  0.3470363622440764
  0.5890729432285841  0.0471254124636965  0.6529636617559188
  0.9109270567714159  0.5471254094636927  0.1529636497559176
  0.0890729702285899  0.4528745905363076  0.8470363862440781
  0.5890729432285841  0.4528745905363076  0.6529636617559188
  0.4109270297714100  0.5471254094636927  0.3470363622440764
 
  0.00000000E+00  0.00000000E+00  0.00000000E+00
  0.00000000E+00  0.00000000E+00  0.00000000E+00
  0.00000000E+00  0.00000000E+00  0.00000000E+00
  0.00000000E+00  0.00000000E+00  0.00000000E+00
  0.00000000E+00  0.00000000E+00  0.00000000E+00
  0.00000000E+00  0.00000000E+00  0.00000000E+00
  0.00000000E+00  0.00000000E+00  0.00000000E+00
  0.00000000E+00  0.00000000E+00  0.00000000E+00
  0.00000000E+00  0.00000000E+00  0.00000000E+00
  0.00000000E+00  0.00000000E+00  0.00000000E+00
  0.00000000E+00  0.00000000E+00  0.00000000E+00
  0.00000000E+00  0.00000000E+00  0.00000000E+00
  0.00000000E+00  0.00000000E+00  0.00000000E+00
  0.00000000E+00  0.00000000E+00  0.00000000E+00
  0.00000000E+00  0.00000000E+00  0.00000000E+00
  0.00000000E+00  0.00000000E+00  0.00000000E+00
  0.00000000E+00  0.00000000E+00  0.00000000E+00
  0.00000000E+00  0.00000000E+00  0.00000000E+00
  0.00000000E+00  0.00000000E+00  0.00000000E+00
  0.00000000E+00  0.00000000E+00  0.00000000E+00
  0.00000000E+00  0.00000000E+00  0.00000000E+00
  0.00000000E+00  0.00000000E+00  0.00000000E+00
  0.00000000E+00  0.00000000E+00  0.00000000E+00
  0.00000000E+00  0.00000000E+00  0.00000000E+00
  0.00000000E+00  0.00000000E+00  0.00000000E+00
  0.00000000E+00  0.00000000E+00  0.00000000E+00
  0.00000000E+00  0.00000000E+00  0.00000000E+00
  0.00000000E+00  0.00000000E+00  0.00000000E+00
  0.00000000E+00  0.00000000E+00  0.00000000E+00
  0.00000000E+00  0.00000000E+00  0.00000000E+00
  0.00000000E+00  0.00000000E+00  0.00000000E+00
  0.00000000E+00  0.00000000E+00  0.00000000E+00
  0.00000000E+00  0.00000000E+00  0.00000000E+00
  0.00000000E+00  0.00000000E+00  0.00000000E+00
  0.00000000E+00  0.00000000E+00  0.00000000E+00
  0.00000000E+00  0.00000000E+00  0.00000000E+00
  0.00000000E+00  0.00000000E+00  0.00000000E+00
  0.00000000E+00  0.00000000E+00  0.00000000E+00
  0.00000000E+00  0.00000000E+00  0.00000000E+00
  0.00000000E+00  0.00000000E+00  0.00000000E+00
  0.00000000E+00  0.00000000E+00  0.00000000E+00
  0.00000000E+00  0.00000000E+00  0.00000000E+00
  0.00000000E+00  0.00000000E+00  0.00000000E+00
  0.00000000E+00  0.00000000E+00  0.00000000E+00
  0.00000000E+00  0.00000000E+00  0.00000000E+00
  0.00000000E+00  0.00000000E+00  0.00000000E+00
  0.00000000E+00  0.00000000E+00  0.00000000E+00
  0.00000000E+00  0.00000000E+00  0.00000000E+00
  0.00000000E+00  0.00000000E+00  0.00000000E+00
  0.00000000E+00  0.00000000E+00  0.00000000E+00
  0.00000000E+00  0.00000000E+00  0.00000000E+00
  0.00000000E+00  0.00000000E+00  0.00000000E+00
  0.00000000E+00  0.00000000E+00  0.00000000E+00
  0.00000000E+00  0.00000000E+00  0.00000000E+00
  0.00000000E+00  0.00000000E+00  0.00000000E+00
  0.00000000E+00  0.00000000E+00  0.00000000E+00
  0.00000000E+00  0.00000000E+00  0.00000000E+00
  0.00000000E+00  0.00000000E+00  0.00000000E+00
  0.00000000E+00  0.00000000E+00  0.00000000E+00
  0.00000000E+00  0.00000000E+00  0.00000000E+00
  0.00000000E+00  0.00000000E+00  0.00000000E+00
  0.00000000E+00  0.00000000E+00  0.00000000E+00
  0.00000000E+00  0.00000000E+00  0.00000000E+00
  0.00000000E+00  0.00000000E+00  0.00000000E+00
  0.00000000E+00  0.00000000E+00  0.00000000E+00
  0.00000000E+00  0.00000000E+00  0.00000000E+00
  0.00000000E+00  0.00000000E+00  0.00000000E+00
  0.00000000E+00  0.00000000E+00  0.00000000E+00
  0.00000000E+00  0.00000000E+00  0.00000000E+00
  0.00000000E+00  0.00000000E+00  0.00000000E+00
  0.00000000E+00  0.00000000E+00  0.00000000E+00
  0.00000000E+00  0.00000000E+00  0.00000000E+00
  0.00000000E+00  0.00000000E+00  0.00000000E+00
  0.00000000E+00  0.00000000E+00  0.00000000E+00
  0.00000000E+00  0.00000000E+00  0.00000000E+00
  0.00000000E+00  0.00000000E+00  0.00000000E+00
  0.00000000E+00  0.00000000E+00  0.00000000E+00
  0.00000000E+00  0.00000000E+00  0.00000000E+00
  0.00000000E+00  0.00000000E+00  0.00000000E+00
  0.00000000E+00  0.00000000E+00  0.00000000E+00
  0.00000000E+00  0.00000000E+00  0.00000000E+00
  0.00000000E+00  0.00000000E+00  0.00000000E+00
  0.00000000E+00  0.00000000E+00  0.00000000E+00
  0.00000000E+00  0.00000000E+00  0.00000000E+00
  0.00000000E+00  0.00000000E+00  0.00000000E+00
  0.00000000E+00  0.00000000E+00  0.00000000E+00
  0.00000000E+00  0.00000000E+00  0.00000000E+00
  0.00000000E+00  0.00000000E+00  0.00000000E+00
  0.00000000E+00  0.00000000E+00  0.00000000E+00
  0.00000000E+00  0.00000000E+00  0.00000000E+00
  0.00000000E+00  0.00000000E+00  0.00000000E+00
  0.00000000E+00  0.00000000E+00  0.00000000E+00
  0.00000000E+00  0.00000000E+00  0.00000000E+00
  0.00000000E+00  0.00000000E+00  0.00000000E+00
  0.00000000E+00  0.00000000E+00  0.00000000E+00
  0.00000000E+00  0.00000000E+00  0.00000000E+00
  0.00000000E+00  0.00000000E+00  0.00000000E+00
  0.00000000E+00  0.00000000E+00  0.00000000E+00
  0.00000000E+00  0.00000000E+00  0.00000000E+00
  0.00000000E+00  0.00000000E+00  0.00000000E+00
  0.00000000E+00  0.00000000E+00  0.00000000E+00
  0.00000000E+00  0.00000000E+00  0.00000000E+00
  0.00000000E+00  0.00000000E+00  0.00000000E+00
  0.00000000E+00  0.00000000E+00  0.00000000E+00
  0.00000000E+00  0.00000000E+00  0.00000000E+00
  0.00000000E+00  0.00000000E+00  0.00000000E+00
  0.00000000E+00  0.00000000E+00  0.00000000E+00
  0.00000000E+00  0.00000000E+00  0.00000000E+00
  0.00000000E+00  0.00000000E+00  0.00000000E+00
  0.00000000E+00  0.00000000E+00  0.00000000E+00
  0.00000000E+00  0.00000000E+00  0.00000000E+00
  0.00000000E+00  0.00000000E+00  0.00000000E+00
  0.00000000E+00  0.00000000E+00  0.00000000E+00
  0.00000000E+00  0.00000000E+00  0.00000000E+00
  0.00000000E+00  0.00000000E+00  0.00000000E+00
  0.00000000E+00  0.00000000E+00  0.00000000E+00
