i4 pb, 2(c3 h7 n2)                      
   1.00000000000000     
     9.0530245743997941    0.0000000000000000   -0.0000000000000000
     0.0000000000000000   20.1180415183541115    0.0000000000000000
     0.0000000000000000    0.0000000000000000   10.4865226667947944
   Pb   I    N    H    C 
     4    16    16    56    24
Direct
  0.6769369909092477  0.2500000000000000  0.9978662528869459
  0.3230630370907542  0.7500000000000000  0.0021337281130560
  0.8230630090907523  0.7500000000000000  0.4978662528869461
  0.1769369629092457  0.2500000000000000  0.5021336991130573
  0.9013262057729700  0.2500000000000000  0.2116185936847318
  0.0986738222270323  0.7500000000000000  0.7883814063152682
  0.5986737942270300  0.7500000000000000  0.7116185936847318
  0.4013262057729699  0.2500000000000000  0.2883814063152680
  0.9262800204557379  0.2500000000000000  0.8042126363315834
  0.0737200005442605  0.7500000000000000  0.1957873636684166
  0.5737200345442560  0.7500000000000000  0.3042126363315831
  0.4262799924557425  0.2500000000000000  0.6957873636684166
  0.6256393597481359  0.0916323226611688  0.0285208664856255
  0.3743606402518641  0.9083676603388188  0.9714791765143743
  0.8743606402518641  0.9083676603388188  0.5285208724856191
  0.1256393597481286  0.0916323226611688  0.4714791275143812
  0.3743606402518641  0.5916323396611812  0.9714791765143743
  0.6256393597481359  0.4083676603388262  0.0285208664856255
  0.1256393597481286  0.4083676603388262  0.4714791275143812
  0.8743606402518641  0.5916323396611812  0.5285208724856191
  0.9846106308672863  0.0106033486000436  0.8420610779500470
  0.0153894071327170  0.9893966473999635  0.1579389580499560
  0.5153893691327137  0.9893966473999635  0.3420610289500465
  0.4846106308672860  0.0106033486000436  0.6579389710499535
  0.0153894071327170  0.5106033526000365  0.1579389580499560
  0.9846106308672863  0.4893966473999630  0.8420610779500470
  0.4846106308672860  0.4893966473999630  0.6579389710499535
  0.5153893691327137  0.5106033526000365  0.3420610289500465
  0.2430995674273089  0.0877408390497029  0.1195443400867200
  0.7569004595726903  0.9122591609502972  0.8804556839132819
  0.2569004325726912  0.9122591609502972  0.6195443160867181
  0.7430995404273097  0.0877408390497029  0.3804556599132800
  0.7569004595726903  0.5877408860497031  0.8804556839132819
  0.2430995674273089  0.4122591609502969  0.1195443400867199
  0.7430995404273097  0.4122591609502969  0.3804556599132800
  0.2569004325726912  0.5877408860497031  0.6195443160867181
  0.1737071647316442  0.0462385320688990  0.1319310660230720
  0.8262928352683560  0.9537614799311016  0.8680688729769263
  0.3262928632683583  0.9537614799311016  0.6319310780230732
  0.6737071647316440  0.0462385320688990  0.3680689459769290
  0.8262928352683560  0.5462385200688984  0.8680688729769263
  0.1737071647316442  0.4537614799311020  0.1319310660230720
  0.6737071647316440  0.4537614799311020  0.3680689459769290
  0.3262928632683583  0.5462385200688984  0.6319310780230732
  0.2395964690032713  0.1143649752576575  0.2044521943321751
  0.7604035029967268  0.8856350717423428  0.7955478056678257
  0.2604035309967287  0.8856350717423428  0.7044521943321743
  0.7395964970032732  0.1143649752576575  0.2955478056678246
  0.7604035029967268  0.6143649752576575  0.7955478056678257
  0.2395964690032713  0.3856350487423446  0.2044521943321750
  0.7395964970032732  0.3856350487423446  0.2955478056678246
  0.2604035309967287  0.6143649752576575  0.7044521943321743
  0.3530394184958462  0.0733038245556407  0.1047822859623247
  0.6469605815041535  0.9266962104443589  0.8952177380376771
  0.1469605955041547  0.9266962104443589  0.6047823099623197
  0.8530394184958465  0.0733038245556407  0.3952177140376753
  0.6469605815041535  0.5733038365556414  0.8952177380376771
  0.3530394184958462  0.4266961634443583  0.1047822859623247
  0.8530394184958465  0.4266961634443583  0.3952177140376753
  0.1469605955041547  0.5733038365556414  0.6047823099623197
  0.1974766418116976  0.1324556202443054  0.8054679972303098
  0.8025233161882981  0.8675443797556948  0.1945319907696892
  0.3025233441883010  0.8675443797556948  0.3054680212303045
  0.6974766838117019  0.1324556202443054  0.6945320027696902
  0.8025233161882981  0.6324556202443052  0.1945319907696892
  0.1974766418116976  0.3675443567556890  0.8054679972303098
  0.6974766838117019  0.3675443567556890  0.6945320027696902
  0.3025233441883010  0.6324556202443052  0.3054680212303045
  0.3108923362819866  0.0696597147697467  0.8718373186127675
  0.6891076637180132  0.9303402852302460  0.1281626083872369
  0.1891076637180133  0.9303402852302460  0.3718373916127631
  0.8108923362819868  0.0696597147697467  0.6281626333872357
  0.6891076637180132  0.5696597147697540  0.1281626083872369
  0.3108923362819866  0.4303402852302532  0.8718373186127675
  0.8108923362819868  0.4303402852302532  0.6281626333872357
  0.1891076637180133  0.5696597147697540  0.3718373916127631
  0.2654118300843911  0.1742865200453137  0.0086596514415098
  0.7345881429156100  0.8257134679546926  0.9913403505584906
  0.2345881699156088  0.8257134679546926  0.5086596494415094
  0.7654118570843900  0.1742865200453137  0.4913403505584902
  0.7345881429156100  0.6742865320453074  0.9913403505584906
  0.2654118300843911  0.3257134679546925  0.0086596514415098
  0.7654118570843900  0.3257134679546925  0.4913403505584902
  0.2345881699156088  0.6742865320453074  0.5086596494415094
  0.0797702505703888  0.1474055181704464  0.0311998809039554
  0.9202297364296138  0.8525945058295559  0.9688001240960413
  0.4202297364296068  0.8525945058295559  0.5311998759039587
  0.5797702635703862  0.1474055181704464  0.4688001240960485
  0.9202297364296138  0.6474054941704441  0.9688001240960413
  0.0797702505703888  0.3525944818295539  0.0311998809039554
  0.5797702635703862  0.3525944818295539  0.4688001240960485
  0.4202297364296068  0.6474054941704441  0.5311998759039587
  0.2034511248781691  0.0948175643191615  0.8815456820735759
  0.7965488751218315  0.9051824416808391  0.1184543429264229
  0.2965488471218284  0.9051824416808391  0.3815456570735773
  0.7034511248781685  0.0948175643191615  0.6184543179264241
  0.7965488751218315  0.5948175583191609  0.1184543429264229
  0.2034511248781691  0.4051824416808392  0.8815456820735759
  0.7034511248781685  0.4051824416808392  0.6184543179264241
  0.2965488471218284  0.5948175583191609  0.3815456570735773
  0.1925449979797429  0.1308445958822703  0.0105993720960447
  0.8074550160202582  0.8691553811177313  0.9894006299039553
  0.3074549880202558  0.8691553811177313  0.5105994190960452
  0.6925449839797418  0.1308445958822703  0.4894006299039557
  0.8074550160202582  0.6308446188822687  0.9894006299039553
  0.1925449979797429  0.3691554041177297  0.0105993720960447
  0.6925449839797418  0.3691554041177297  0.4894006299039557
  0.3074549880202558  0.6308446188822687  0.5105994190960452
  0.0845519225879665  0.0473875766939542  0.8594959600431327
  0.9154481044120392  0.9526123793060493  0.1405040759568628
  0.4154480774120334  0.9526123793060493  0.3594959360431312
  0.5845518955879608  0.0473875766939542  0.6405040879568642
  0.9154481044120392  0.5473875736939504  0.1405040759568628
  0.0845519225879665  0.4526124263060495  0.8594959600431327
  0.5845518955879608  0.4526124263060495  0.6405040879568642
  0.4154480774120334  0.5473875736939504  0.3594959360431312
 
  0.00000000E+00  0.00000000E+00  0.00000000E+00
  0.00000000E+00  0.00000000E+00  0.00000000E+00
  0.00000000E+00  0.00000000E+00  0.00000000E+00
  0.00000000E+00  0.00000000E+00  0.00000000E+00
  0.00000000E+00  0.00000000E+00  0.00000000E+00
  0.00000000E+00  0.00000000E+00  0.00000000E+00
  0.00000000E+00  0.00000000E+00  0.00000000E+00
  0.00000000E+00  0.00000000E+00  0.00000000E+00
  0.00000000E+00  0.00000000E+00  0.00000000E+00
  0.00000000E+00  0.00000000E+00  0.00000000E+00
  0.00000000E+00  0.00000000E+00  0.00000000E+00
  0.00000000E+00  0.00000000E+00  0.00000000E+00
  0.00000000E+00  0.00000000E+00  0.00000000E+00
  0.00000000E+00  0.00000000E+00  0.00000000E+00
  0.00000000E+00  0.00000000E+00  0.00000000E+00
  0.00000000E+00  0.00000000E+00  0.00000000E+00
  0.00000000E+00  0.00000000E+00  0.00000000E+00
  0.00000000E+00  0.00000000E+00  0.00000000E+00
  0.00000000E+00  0.00000000E+00  0.00000000E+00
  0.00000000E+00  0.00000000E+00  0.00000000E+00
  0.00000000E+00  0.00000000E+00  0.00000000E+00
  0.00000000E+00  0.00000000E+00  0.00000000E+00
  0.00000000E+00  0.00000000E+00  0.00000000E+00
  0.00000000E+00  0.00000000E+00  0.00000000E+00
  0.00000000E+00  0.00000000E+00  0.00000000E+00
  0.00000000E+00  0.00000000E+00  0.00000000E+00
  0.00000000E+00  0.00000000E+00  0.00000000E+00
  0.00000000E+00  0.00000000E+00  0.00000000E+00
  0.00000000E+00  0.00000000E+00  0.00000000E+00
  0.00000000E+00  0.00000000E+00  0.00000000E+00
  0.00000000E+00  0.00000000E+00  0.00000000E+00
  0.00000000E+00  0.00000000E+00  0.00000000E+00
  0.00000000E+00  0.00000000E+00  0.00000000E+00
  0.00000000E+00  0.00000000E+00  0.00000000E+00
  0.00000000E+00  0.00000000E+00  0.00000000E+00
  0.00000000E+00  0.00000000E+00  0.00000000E+00
  0.00000000E+00  0.00000000E+00  0.00000000E+00
  0.00000000E+00  0.00000000E+00  0.00000000E+00
  0.00000000E+00  0.00000000E+00  0.00000000E+00
  0.00000000E+00  0.00000000E+00  0.00000000E+00
  0.00000000E+00  0.00000000E+00  0.00000000E+00
  0.00000000E+00  0.00000000E+00  0.00000000E+00
  0.00000000E+00  0.00000000E+00  0.00000000E+00
  0.00000000E+00  0.00000000E+00  0.00000000E+00
  0.00000000E+00  0.00000000E+00  0.00000000E+00
  0.00000000E+00  0.00000000E+00  0.00000000E+00
  0.00000000E+00  0.00000000E+00  0.00000000E+00
  0.00000000E+00  0.00000000E+00  0.00000000E+00
  0.00000000E+00  0.00000000E+00  0.00000000E+00
  0.00000000E+00  0.00000000E+00  0.00000000E+00
  0.00000000E+00  0.00000000E+00  0.00000000E+00
  0.00000000E+00  0.00000000E+00  0.00000000E+00
  0.00000000E+00  0.00000000E+00  0.00000000E+00
  0.00000000E+00  0.00000000E+00  0.00000000E+00
  0.00000000E+00  0.00000000E+00  0.00000000E+00
  0.00000000E+00  0.00000000E+00  0.00000000E+00
  0.00000000E+00  0.00000000E+00  0.00000000E+00
  0.00000000E+00  0.00000000E+00  0.00000000E+00
  0.00000000E+00  0.00000000E+00  0.00000000E+00
  0.00000000E+00  0.00000000E+00  0.00000000E+00
  0.00000000E+00  0.00000000E+00  0.00000000E+00
  0.00000000E+00  0.00000000E+00  0.00000000E+00
  0.00000000E+00  0.00000000E+00  0.00000000E+00
  0.00000000E+00  0.00000000E+00  0.00000000E+00
  0.00000000E+00  0.00000000E+00  0.00000000E+00
  0.00000000E+00  0.00000000E+00  0.00000000E+00
  0.00000000E+00  0.00000000E+00  0.00000000E+00
  0.00000000E+00  0.00000000E+00  0.00000000E+00
  0.00000000E+00  0.00000000E+00  0.00000000E+00
  0.00000000E+00  0.00000000E+00  0.00000000E+00
  0.00000000E+00  0.00000000E+00  0.00000000E+00
  0.00000000E+00  0.00000000E+00  0.00000000E+00
  0.00000000E+00  0.00000000E+00  0.00000000E+00
  0.00000000E+00  0.00000000E+00  0.00000000E+00
  0.00000000E+00  0.00000000E+00  0.00000000E+00
  0.00000000E+00  0.00000000E+00  0.00000000E+00
  0.00000000E+00  0.00000000E+00  0.00000000E+00
  0.00000000E+00  0.00000000E+00  0.00000000E+00
  0.00000000E+00  0.00000000E+00  0.00000000E+00
  0.00000000E+00  0.00000000E+00  0.00000000E+00
  0.00000000E+00  0.00000000E+00  0.00000000E+00
  0.00000000E+00  0.00000000E+00  0.00000000E+00
  0.00000000E+00  0.00000000E+00  0.00000000E+00
  0.00000000E+00  0.00000000E+00  0.00000000E+00
  0.00000000E+00  0.00000000E+00  0.00000000E+00
  0.00000000E+00  0.00000000E+00  0.00000000E+00
  0.00000000E+00  0.00000000E+00  0.00000000E+00
  0.00000000E+00  0.00000000E+00  0.00000000E+00
  0.00000000E+00  0.00000000E+00  0.00000000E+00
  0.00000000E+00  0.00000000E+00  0.00000000E+00
  0.00000000E+00  0.00000000E+00  0.00000000E+00
  0.00000000E+00  0.00000000E+00  0.00000000E+00
  0.00000000E+00  0.00000000E+00  0.00000000E+00
  0.00000000E+00  0.00000000E+00  0.00000000E+00
  0.00000000E+00  0.00000000E+00  0.00000000E+00
  0.00000000E+00  0.00000000E+00  0.00000000E+00
  0.00000000E+00  0.00000000E+00  0.00000000E+00
  0.00000000E+00  0.00000000E+00  0.00000000E+00
  0.00000000E+00  0.00000000E+00  0.00000000E+00
  0.00000000E+00  0.00000000E+00  0.00000000E+00
  0.00000000E+00  0.00000000E+00  0.00000000E+00
  0.00000000E+00  0.00000000E+00  0.00000000E+00
  0.00000000E+00  0.00000000E+00  0.00000000E+00
  0.00000000E+00  0.00000000E+00  0.00000000E+00
  0.00000000E+00  0.00000000E+00  0.00000000E+00
  0.00000000E+00  0.00000000E+00  0.00000000E+00
  0.00000000E+00  0.00000000E+00  0.00000000E+00
  0.00000000E+00  0.00000000E+00  0.00000000E+00
  0.00000000E+00  0.00000000E+00  0.00000000E+00
  0.00000000E+00  0.00000000E+00  0.00000000E+00
  0.00000000E+00  0.00000000E+00  0.00000000E+00
  0.00000000E+00  0.00000000E+00  0.00000000E+00
  0.00000000E+00  0.00000000E+00  0.00000000E+00
  0.00000000E+00  0.00000000E+00  0.00000000E+00
  0.00000000E+00  0.00000000E+00  0.00000000E+00
  0.00000000E+00  0.00000000E+00  0.00000000E+00
