i4 pb, 2(c3 h7 n2)                      
   1.00000000000000     
     8.6253348013867832    0.0000000000000000    0.0000000000000000
     0.0000000000000000   19.4203557537010987    0.0000000000000000
    -0.0000000000000000    0.0000000000000000   10.0139272864158198
   Pb   I    N    H    C 
     4    16    16    56    24
Direct
  0.6410309278800376  0.2500000000000000  0.9930080747502480
  0.3589691001199645  0.7500000000000000  0.0069919062497539
  0.8589690721199624  0.7500000000000000  0.4930080747502479
  0.1410308998800354  0.2500000000000000  0.5069918772497551
  0.9045240816386393  0.2500000000000000  0.2074486361563941
  0.0954759463613632  0.7500000000000000  0.7925513638436061
  0.5954759183613607  0.7500000000000000  0.7074486361563939
  0.4045240816386392  0.2500000000000000  0.2925513638436060
  0.9349005780041886  0.2500000000000000  0.8120377554064682
  0.0650994429958095  0.7500000000000000  0.1879622445935313
  0.5650994769958053  0.7500000000000000  0.3120377554064684
  0.4349005500041933  0.2500000000000000  0.6879622445935317
  0.6372368752571739  0.0873174727336013  0.0171148494426660
  0.3627631247428253  0.9126825102663864  0.9828851935573343
  0.8627631247428261  0.9126825102663864  0.5171148554426591
  0.1372368752571674  0.0873174727336013  0.4828851445573406
  0.3627631247428253  0.5873174897336136  0.9828851935573343
  0.6372368752571739  0.4126825102663938  0.0171148494426660
  0.1372368752571674  0.4126825102663938  0.4828851445573406
  0.8627631247428261  0.5873174897336136  0.5171148554426591
  0.9821273647929450  0.0100301568828919  0.8369362806648298
  0.0178726732070578  0.9899698391171154  0.1630637553351734
  0.5178726352070550  0.9899698391171154  0.3369362316648289
  0.4821273647929451  0.0100301568828919  0.6630637683351707
  0.0178726732070578  0.5100301608828846  0.1630637553351734
  0.9821273647929450  0.4899698391171149  0.8369362806648298
  0.4821273647929451  0.4899698391171149  0.6630637683351707
  0.5178726352070550  0.5100301608828846  0.3369362316648289
  0.2502459397546554  0.0899269773496190  0.1249783943764860
  0.7497540872453429  0.9100730226503811  0.8750216296235162
  0.2497540602453446  0.9100730226503811  0.6249783703764838
  0.7502459127546571  0.0899269773496190  0.3750216056235137
  0.7497540872453429  0.5899270243496192  0.8750216296235163
  0.2502459397546554  0.4100730226503808  0.1249783943764860
  0.7502459127546571  0.4100730226503808  0.3750216056235137
  0.2497540602453446  0.5899270243496192  0.6249783703764838
  0.1731856467969962  0.0483233647011128  0.1405989351285893
  0.8268143532030037  0.9516766472988883  0.8594010038714097
  0.3268143812030063  0.9516766472988883  0.6405989471285898
  0.6731856467969963  0.0483233647011128  0.3594010768714120
  0.8268143532030037  0.5483233527011117  0.8594010038714097
  0.1731856467969962  0.4516766472988881  0.1405989351285893
  0.6731856467969963  0.4516766472988881  0.3594010768714120
  0.3268143812030063  0.5483233527011117  0.6405989471285898
  0.2532905885893512  0.1183476780016207  0.2129439682231601
  0.7467093834106471  0.8816523689983793  0.7870560317768396
  0.2467094114106486  0.8816523689983793  0.7129439682231603
  0.7532906165893529  0.1183476780016207  0.2870560317768400
  0.7467093834106471  0.6183476780016210  0.7870560317768396
  0.2532905885893512  0.3816523459983815  0.2129439682231601
  0.7532906165893529  0.3816523459983815  0.2870560317768400
  0.2467094114106486  0.6183476780016210  0.7129439682231604
  0.3635884542459819  0.0725531297494823  0.1062980114116908
  0.6364115457540178  0.9274469052505170  0.8937020125883107
  0.1364115597540192  0.9274469052505170  0.6062980354116861
  0.8635884542459822  0.0725531297494823  0.3937019885883092
  0.6364115457540178  0.5725531417494834  0.8937020125883107
  0.3635884542459819  0.4274468582505167  0.1062980114116908
  0.8635884542459822  0.4274468582505167  0.3937019885883092
  0.1364115597540192  0.5725531417494834  0.6062980354116861
  0.2071433388345278  0.1352969051274335  0.7972648922290724
  0.7928566191654689  0.8647030948725664  0.2027350957709263
  0.2928566471654710  0.8647030948725664  0.2972649162290675
  0.7071433808345311  0.1352969051274335  0.7027351077709276
  0.7928566191654689  0.6352969051274336  0.2027350957709263
  0.2071433388345278  0.3647030718725610  0.7972648922290724
  0.7071433808345311  0.3647030718725610  0.7027351077709276
  0.2928566471654710  0.6352969051274336  0.2972649162290675
  0.3232284107802973  0.0699843708602800  0.8695989395571595
  0.6767715892197025  0.9300156291397131  0.1304009874428455
  0.1767715892197023  0.9300156291397131  0.3695990125571545
  0.8232284107802975  0.0699843708602800  0.6304010124428436
  0.6767715892197025  0.5699843708602869  0.1304009874428455
  0.3232284107802973  0.4300156291397198  0.8695989395571595
  0.8232284107802975  0.4300156291397198  0.6304010124428436
  0.1767715892197023  0.5699843708602869  0.3695990125571545
  0.2738212574112598  0.1795211613864994  0.0097391019665759
  0.7261787155887417  0.8204788266135061  0.9902609000334244
  0.2261787425887405  0.8204788266135061  0.5097390999665756
  0.7738212844112583  0.1795211613864994  0.4902609000334243
  0.7261787155887417  0.6795211733864939  0.9902609000334244
  0.2738212574112598  0.3204788266135069  0.0097391019665759
  0.7738212844112583  0.3204788266135069  0.4902609000334243
  0.2261787425887405  0.6795211733864939  0.5097390999665756
  0.0794555730386218  0.1514780473958613  0.0324967537978916
  0.9205444139613809  0.8485219766041397  0.9675032512021058
  0.4205444139613735  0.8485219766041397  0.5324967487978942
  0.5794555860386191  0.1514780473958613  0.4675032512021127
  0.9205444139613809  0.6514780233958603  0.9675032512021058
  0.0794555730386218  0.3485219526041388  0.0324967537978916
  0.5794555860386191  0.3485219526041388  0.4675032512021127
  0.4205444139613735  0.6514780233958603  0.5324967487978942
  0.2106719063255466  0.0967368753655398  0.8779926714046374
  0.7893280936744536  0.9032631306344608  0.1220073535953616
  0.2893280656744507  0.9032631306344608  0.3779926464046381
  0.7106719063255464  0.0967368753655398  0.6220073285953626
  0.7893280936744536  0.5967368693655392  0.1220073535953616
  0.2106719063255466  0.4032631306344608  0.8779926714046374
  0.7106719063255464  0.4032631306344608  0.6220073285953626
  0.2893280656744507  0.5967368693655392  0.3779926464046381
  0.1981625335816214  0.1341487673783974  0.0119141098418525
  0.8018374804183798  0.8658512096216043  0.9880858921581476
  0.3018374524183779  0.8658512096216043  0.5119141568418529
  0.6981625195816202  0.1341487673783974  0.4880858921581478
  0.8018374804183798  0.6341487903783957  0.9880858921581476
  0.1981625335816214  0.3658512326216027  0.0119141098418525
  0.6981625195816202  0.3658512326216027  0.4880858921581478
  0.3018374524183779  0.6341487903783957  0.5119141568418529
  0.0864677774357726  0.0482298902905724  0.8546771908692904
  0.9135322495642335  0.9517700657094312  0.1453228451307054
  0.4135322225642272  0.9517700657094312  0.3546771668692885
  0.5864677504357665  0.0482298902905724  0.6453228571307065
  0.9135322495642335  0.5482298872905684  0.1453228451307054
  0.0864677774357726  0.4517701127094316  0.8546771908692904
  0.5864677504357665  0.4517701127094316  0.6453228571307065
  0.4135322225642272  0.5482298872905684  0.3546771668692885
 
  0.00000000E+00  0.00000000E+00  0.00000000E+00
  0.00000000E+00  0.00000000E+00  0.00000000E+00
  0.00000000E+00  0.00000000E+00  0.00000000E+00
  0.00000000E+00  0.00000000E+00  0.00000000E+00
  0.00000000E+00  0.00000000E+00  0.00000000E+00
  0.00000000E+00  0.00000000E+00  0.00000000E+00
  0.00000000E+00  0.00000000E+00  0.00000000E+00
  0.00000000E+00  0.00000000E+00  0.00000000E+00
  0.00000000E+00  0.00000000E+00  0.00000000E+00
  0.00000000E+00  0.00000000E+00  0.00000000E+00
  0.00000000E+00  0.00000000E+00  0.00000000E+00
  0.00000000E+00  0.00000000E+00  0.00000000E+00
  0.00000000E+00  0.00000000E+00  0.00000000E+00
  0.00000000E+00  0.00000000E+00  0.00000000E+00
  0.00000000E+00  0.00000000E+00  0.00000000E+00
  0.00000000E+00  0.00000000E+00  0.00000000E+00
  0.00000000E+00  0.00000000E+00  0.00000000E+00
  0.00000000E+00  0.00000000E+00  0.00000000E+00
  0.00000000E+00  0.00000000E+00  0.00000000E+00
  0.00000000E+00  0.00000000E+00  0.00000000E+00
  0.00000000E+00  0.00000000E+00  0.00000000E+00
  0.00000000E+00  0.00000000E+00  0.00000000E+00
  0.00000000E+00  0.00000000E+00  0.00000000E+00
  0.00000000E+00  0.00000000E+00  0.00000000E+00
  0.00000000E+00  0.00000000E+00  0.00000000E+00
  0.00000000E+00  0.00000000E+00  0.00000000E+00
  0.00000000E+00  0.00000000E+00  0.00000000E+00
  0.00000000E+00  0.00000000E+00  0.00000000E+00
  0.00000000E+00  0.00000000E+00  0.00000000E+00
  0.00000000E+00  0.00000000E+00  0.00000000E+00
  0.00000000E+00  0.00000000E+00  0.00000000E+00
  0.00000000E+00  0.00000000E+00  0.00000000E+00
  0.00000000E+00  0.00000000E+00  0.00000000E+00
  0.00000000E+00  0.00000000E+00  0.00000000E+00
  0.00000000E+00  0.00000000E+00  0.00000000E+00
  0.00000000E+00  0.00000000E+00  0.00000000E+00
  0.00000000E+00  0.00000000E+00  0.00000000E+00
  0.00000000E+00  0.00000000E+00  0.00000000E+00
  0.00000000E+00  0.00000000E+00  0.00000000E+00
  0.00000000E+00  0.00000000E+00  0.00000000E+00
  0.00000000E+00  0.00000000E+00  0.00000000E+00
  0.00000000E+00  0.00000000E+00  0.00000000E+00
  0.00000000E+00  0.00000000E+00  0.00000000E+00
  0.00000000E+00  0.00000000E+00  0.00000000E+00
  0.00000000E+00  0.00000000E+00  0.00000000E+00
  0.00000000E+00  0.00000000E+00  0.00000000E+00
  0.00000000E+00  0.00000000E+00  0.00000000E+00
  0.00000000E+00  0.00000000E+00  0.00000000E+00
  0.00000000E+00  0.00000000E+00  0.00000000E+00
  0.00000000E+00  0.00000000E+00  0.00000000E+00
  0.00000000E+00  0.00000000E+00  0.00000000E+00
  0.00000000E+00  0.00000000E+00  0.00000000E+00
  0.00000000E+00  0.00000000E+00  0.00000000E+00
  0.00000000E+00  0.00000000E+00  0.00000000E+00
  0.00000000E+00  0.00000000E+00  0.00000000E+00
  0.00000000E+00  0.00000000E+00  0.00000000E+00
  0.00000000E+00  0.00000000E+00  0.00000000E+00
  0.00000000E+00  0.00000000E+00  0.00000000E+00
  0.00000000E+00  0.00000000E+00  0.00000000E+00
  0.00000000E+00  0.00000000E+00  0.00000000E+00
  0.00000000E+00  0.00000000E+00  0.00000000E+00
  0.00000000E+00  0.00000000E+00  0.00000000E+00
  0.00000000E+00  0.00000000E+00  0.00000000E+00
  0.00000000E+00  0.00000000E+00  0.00000000E+00
  0.00000000E+00  0.00000000E+00  0.00000000E+00
  0.00000000E+00  0.00000000E+00  0.00000000E+00
  0.00000000E+00  0.00000000E+00  0.00000000E+00
  0.00000000E+00  0.00000000E+00  0.00000000E+00
  0.00000000E+00  0.00000000E+00  0.00000000E+00
  0.00000000E+00  0.00000000E+00  0.00000000E+00
  0.00000000E+00  0.00000000E+00  0.00000000E+00
  0.00000000E+00  0.00000000E+00  0.00000000E+00
  0.00000000E+00  0.00000000E+00  0.00000000E+00
  0.00000000E+00  0.00000000E+00  0.00000000E+00
  0.00000000E+00  0.00000000E+00  0.00000000E+00
  0.00000000E+00  0.00000000E+00  0.00000000E+00
  0.00000000E+00  0.00000000E+00  0.00000000E+00
  0.00000000E+00  0.00000000E+00  0.00000000E+00
  0.00000000E+00  0.00000000E+00  0.00000000E+00
  0.00000000E+00  0.00000000E+00  0.00000000E+00
  0.00000000E+00  0.00000000E+00  0.00000000E+00
  0.00000000E+00  0.00000000E+00  0.00000000E+00
  0.00000000E+00  0.00000000E+00  0.00000000E+00
  0.00000000E+00  0.00000000E+00  0.00000000E+00
  0.00000000E+00  0.00000000E+00  0.00000000E+00
  0.00000000E+00  0.00000000E+00  0.00000000E+00
  0.00000000E+00  0.00000000E+00  0.00000000E+00
  0.00000000E+00  0.00000000E+00  0.00000000E+00
  0.00000000E+00  0.00000000E+00  0.00000000E+00
  0.00000000E+00  0.00000000E+00  0.00000000E+00
  0.00000000E+00  0.00000000E+00  0.00000000E+00
  0.00000000E+00  0.00000000E+00  0.00000000E+00
  0.00000000E+00  0.00000000E+00  0.00000000E+00
  0.00000000E+00  0.00000000E+00  0.00000000E+00
  0.00000000E+00  0.00000000E+00  0.00000000E+00
  0.00000000E+00  0.00000000E+00  0.00000000E+00
  0.00000000E+00  0.00000000E+00  0.00000000E+00
  0.00000000E+00  0.00000000E+00  0.00000000E+00
  0.00000000E+00  0.00000000E+00  0.00000000E+00
  0.00000000E+00  0.00000000E+00  0.00000000E+00
  0.00000000E+00  0.00000000E+00  0.00000000E+00
  0.00000000E+00  0.00000000E+00  0.00000000E+00
  0.00000000E+00  0.00000000E+00  0.00000000E+00
  0.00000000E+00  0.00000000E+00  0.00000000E+00
  0.00000000E+00  0.00000000E+00  0.00000000E+00
  0.00000000E+00  0.00000000E+00  0.00000000E+00
  0.00000000E+00  0.00000000E+00  0.00000000E+00
  0.00000000E+00  0.00000000E+00  0.00000000E+00
  0.00000000E+00  0.00000000E+00  0.00000000E+00
  0.00000000E+00  0.00000000E+00  0.00000000E+00
  0.00000000E+00  0.00000000E+00  0.00000000E+00
  0.00000000E+00  0.00000000E+00  0.00000000E+00
  0.00000000E+00  0.00000000E+00  0.00000000E+00
  0.00000000E+00  0.00000000E+00  0.00000000E+00
  0.00000000E+00  0.00000000E+00  0.00000000E+00
  0.00000000E+00  0.00000000E+00  0.00000000E+00
